*SPEF "ieee 1481-1999"
*DESIGN "hdecoder"
*DATE "19:38:43 Tuesday September 02, 2025"
*VENDOR "The OpenROAD Project"
*PROGRAM "OpenROAD"
*VERSION "341650e72dad0dc8571822ff8c5d9c5e365327f7"
*DESIGN_FLOW "NAME_SCOPE LOCAL" "PIN_CAP NONE"
*DIVIDER /
*DELIMITER :
*BUS_DELIMITER []
*T_UNIT 1 NS
*C_UNIT 1 PF
*R_UNIT 1 OHM
*L_UNIT 1 HENRY

*NAME_MAP
*3 ena_i
*4 input_ni[0]
*5 input_ni[1]
*6 input_ni[2]
*7 input_ni[3]
*8 input_ni[4]
*9 input_ni[5]
*10 input_ni[6]
*11 output_no[0]
*12 output_no[100]
*13 output_no[101]
*14 output_no[102]
*15 output_no[103]
*16 output_no[104]
*17 output_no[105]
*18 output_no[106]
*19 output_no[107]
*20 output_no[108]
*21 output_no[109]
*22 output_no[10]
*23 output_no[110]
*24 output_no[111]
*25 output_no[112]
*26 output_no[113]
*27 output_no[114]
*28 output_no[115]
*29 output_no[116]
*30 output_no[117]
*31 output_no[118]
*32 output_no[119]
*33 output_no[11]
*34 output_no[120]
*35 output_no[121]
*36 output_no[122]
*37 output_no[123]
*38 output_no[124]
*39 output_no[125]
*40 output_no[126]
*41 output_no[127]
*42 output_no[12]
*43 output_no[13]
*44 output_no[14]
*45 output_no[15]
*46 output_no[16]
*47 output_no[17]
*48 output_no[18]
*49 output_no[19]
*50 output_no[1]
*51 output_no[20]
*52 output_no[21]
*53 output_no[22]
*54 output_no[23]
*55 output_no[24]
*56 output_no[25]
*57 output_no[26]
*58 output_no[27]
*59 output_no[28]
*60 output_no[29]
*61 output_no[2]
*62 output_no[30]
*63 output_no[31]
*64 output_no[32]
*65 output_no[33]
*66 output_no[34]
*67 output_no[35]
*68 output_no[36]
*69 output_no[37]
*70 output_no[38]
*71 output_no[39]
*72 output_no[3]
*73 output_no[40]
*74 output_no[41]
*75 output_no[42]
*76 output_no[43]
*77 output_no[44]
*78 output_no[45]
*79 output_no[46]
*80 output_no[47]
*81 output_no[48]
*82 output_no[49]
*83 output_no[4]
*84 output_no[50]
*85 output_no[51]
*86 output_no[52]
*87 output_no[53]
*88 output_no[54]
*89 output_no[55]
*90 output_no[56]
*91 output_no[57]
*92 output_no[58]
*93 output_no[59]
*94 output_no[5]
*95 output_no[60]
*96 output_no[61]
*97 output_no[62]
*98 output_no[63]
*99 output_no[64]
*100 output_no[65]
*101 output_no[66]
*102 output_no[67]
*103 output_no[68]
*104 output_no[69]
*105 output_no[6]
*106 output_no[70]
*107 output_no[71]
*108 output_no[72]
*109 output_no[73]
*110 output_no[74]
*111 output_no[75]
*112 output_no[76]
*113 output_no[77]
*114 output_no[78]
*115 output_no[79]
*116 output_no[7]
*117 output_no[80]
*118 output_no[81]
*119 output_no[82]
*120 output_no[83]
*121 output_no[84]
*122 output_no[85]
*123 output_no[86]
*124 output_no[87]
*125 output_no[88]
*126 output_no[89]
*127 output_no[8]
*128 output_no[90]
*129 output_no[91]
*130 output_no[92]
*131 output_no[93]
*132 output_no[94]
*133 output_no[95]
*134 output_no[96]
*135 output_no[97]
*136 output_no[98]
*137 output_no[99]
*138 output_no[9]
*139 output_o[0]
*140 output_o[100]
*141 output_o[101]
*142 output_o[102]
*143 output_o[103]
*144 output_o[104]
*145 output_o[105]
*146 output_o[106]
*147 output_o[107]
*148 output_o[108]
*149 output_o[109]
*150 output_o[10]
*151 output_o[110]
*152 output_o[111]
*153 output_o[112]
*154 output_o[113]
*155 output_o[114]
*156 output_o[115]
*157 output_o[116]
*158 output_o[117]
*159 output_o[118]
*160 output_o[119]
*161 output_o[11]
*162 output_o[120]
*163 output_o[121]
*164 output_o[122]
*165 output_o[123]
*166 output_o[124]
*167 output_o[125]
*168 output_o[126]
*169 output_o[127]
*170 output_o[12]
*171 output_o[13]
*172 output_o[14]
*173 output_o[15]
*174 output_o[16]
*175 output_o[17]
*176 output_o[18]
*177 output_o[19]
*178 output_o[1]
*179 output_o[20]
*180 output_o[21]
*181 output_o[22]
*182 output_o[23]
*183 output_o[24]
*184 output_o[25]
*185 output_o[26]
*186 output_o[27]
*187 output_o[28]
*188 output_o[29]
*189 output_o[2]
*190 output_o[30]
*191 output_o[31]
*192 output_o[32]
*193 output_o[33]
*194 output_o[34]
*195 output_o[35]
*196 output_o[36]
*197 output_o[37]
*198 output_o[38]
*199 output_o[39]
*200 output_o[3]
*201 output_o[40]
*202 output_o[41]
*203 output_o[42]
*204 output_o[43]
*205 output_o[44]
*206 output_o[45]
*207 output_o[46]
*208 output_o[47]
*209 output_o[48]
*210 output_o[49]
*211 output_o[4]
*212 output_o[50]
*213 output_o[51]
*214 output_o[52]
*215 output_o[53]
*216 output_o[54]
*217 output_o[55]
*218 output_o[56]
*219 output_o[57]
*220 output_o[58]
*221 output_o[59]
*222 output_o[5]
*223 output_o[60]
*224 output_o[61]
*225 output_o[62]
*226 output_o[63]
*227 output_o[64]
*228 output_o[65]
*229 output_o[66]
*230 output_o[67]
*231 output_o[68]
*232 output_o[69]
*233 output_o[6]
*234 output_o[70]
*235 output_o[71]
*236 output_o[72]
*237 output_o[73]
*238 output_o[74]
*239 output_o[75]
*240 output_o[76]
*241 output_o[77]
*242 output_o[78]
*243 output_o[79]
*244 output_o[7]
*245 output_o[80]
*246 output_o[81]
*247 output_o[82]
*248 output_o[83]
*249 output_o[84]
*250 output_o[85]
*251 output_o[86]
*252 output_o[87]
*253 output_o[88]
*254 output_o[89]
*255 output_o[8]
*256 output_o[90]
*257 output_o[91]
*258 output_o[92]
*259 output_o[93]
*260 output_o[94]
*261 output_o[95]
*262 output_o[96]
*263 output_o[97]
*264 output_o[98]
*265 output_o[99]
*266 output_o[9]
*267 _000_
*268 _001_
*269 _002_
*270 _003_
*271 _004_
*272 _005_
*273 _006_
*274 _007_
*275 _008_
*276 _009_
*277 _010_
*278 _011_
*279 _012_
*280 _013_
*281 _014_
*282 _015_
*283 _016_
*284 _017_
*285 _018_
*286 _019_
*287 _020_
*288 _021_
*289 _022_
*290 _023_
*291 _024_
*292 _025_
*293 _026_
*294 _027_
*295 _028_
*296 _029_
*297 _030_
*298 _031_
*299 _032_
*300 _033_
*301 _034_
*302 _035_
*303 _036_
*304 _037_
*305 _038_
*306 _039_
*307 _040_
*308 _041_
*309 _042_
*310 _043_
*311 _044_
*312 _045_
*313 _046_
*314 _047_
*315 _048_
*316 _049_
*317 _050_
*318 _051_
*319 _052_
*320 _053_
*321 _054_
*322 _055_
*323 _056_
*324 _057_
*325 _058_
*326 _059_
*327 _060_
*328 _061_
*329 _062_
*330 _063_
*331 _064_
*332 _065_
*333 _066_
*334 _067_
*335 _068_
*336 _069_
*337 _070_
*338 _071_
*339 _072_
*340 _073_
*341 _074_
*342 _075_
*343 _076_
*344 _077_
*345 _078_
*346 _079_
*347 FILLER_0_0
*348 FILLER_0_1017
*349 FILLER_0_1124
*350 FILLER_0_114
*351 FILLER_0_1151
*352 FILLER_0_1165
*353 FILLER_0_1172
*354 FILLER_0_1179
*355 FILLER_0_1186
*356 FILLER_0_1193
*357 FILLER_0_1200
*358 FILLER_0_1207
*359 FILLER_0_1214
*360 FILLER_0_122
*361 FILLER_0_1221
*362 FILLER_0_1228
*363 FILLER_0_1235
*364 FILLER_0_124
*365 FILLER_0_1242
*366 FILLER_0_1249
*367 FILLER_0_1256
*368 FILLER_0_1263
*369 FILLER_0_1270
*370 FILLER_0_1277
*371 FILLER_0_129
*372 FILLER_0_133
*373 FILLER_0_14
*374 FILLER_0_146
*375 FILLER_0_150
*376 FILLER_0_156
*377 FILLER_0_163
*378 FILLER_0_170
*379 FILLER_0_199
*380 FILLER_0_201
*381 FILLER_0_21
*382 FILLER_0_225
*383 FILLER_0_227
*384 FILLER_0_242
*385 FILLER_0_252
*386 FILLER_0_263
*387 FILLER_0_270
*388 FILLER_0_274
*389 FILLER_0_28
*390 FILLER_0_285
*391 FILLER_0_295
*392 FILLER_0_305
*393 FILLER_0_316
*394 FILLER_0_332
*395 FILLER_0_339
*396 FILLER_0_343
*397 FILLER_0_348
*398 FILLER_0_35
*399 FILLER_0_356
*400 FILLER_0_363
*401 FILLER_0_374
*402 FILLER_0_376
*403 FILLER_0_381
*404 FILLER_0_392
*405 FILLER_0_401
*406 FILLER_0_419
*407 FILLER_0_42
*408 FILLER_0_423
*409 FILLER_0_438
*410 FILLER_0_486
*411 FILLER_0_49
*412 FILLER_0_496
*413 FILLER_0_513
*414 FILLER_0_530
*415 FILLER_0_540
*416 FILLER_0_549
*417 FILLER_0_56
*418 FILLER_0_575
*419 FILLER_0_584
*420 FILLER_0_63
*421 FILLER_0_645
*422 FILLER_0_652
*423 FILLER_0_666
*424 FILLER_0_678
*425 FILLER_0_7
*426 FILLER_0_70
*427 FILLER_0_712
*428 FILLER_0_739
*429 FILLER_0_749
*430 FILLER_0_756
*431 FILLER_0_763
*432 FILLER_0_77
*433 FILLER_0_775
*434 FILLER_0_784
*435 FILLER_0_793
*436 FILLER_0_806
*437 FILLER_0_810
*438 FILLER_0_820
*439 FILLER_0_829
*440 FILLER_0_831
*441 FILLER_0_84
*442 FILLER_0_840
*443 FILLER_0_866
*444 FILLER_0_892
*445 FILLER_0_901
*446 FILLER_0_91
*447 FILLER_0_910
*448 FILLER_0_919
*449 FILLER_0_928
*450 FILLER_0_937
*451 FILLER_0_95
*452 FILLER_0_950
*453 FILLER_0_952
*454 FILLER_0_973
*455 FILLER_0_991
*456 FILLER_1_0
*457 FILLER_1_1003
*458 FILLER_1_1009
*459 FILLER_1_1011
*460 FILLER_1_1020
*461 FILLER_1_1032
*462 FILLER_1_1047
*463 FILLER_1_1052
*464 FILLER_1_1056
*465 FILLER_1_1062
*466 FILLER_1_1069
*467 FILLER_1_1073
*468 FILLER_1_1079
*469 FILLER_1_1083
*470 FILLER_1_1088
*471 FILLER_1_109
*472 FILLER_1_1095
*473 FILLER_1_1102
*474 FILLER_1_1109
*475 FILLER_1_1116
*476 FILLER_1_1131
*477 FILLER_1_1138
*478 FILLER_1_1145
*479 FILLER_1_1149
*480 FILLER_1_1155
*481 FILLER_1_116
*482 FILLER_1_1162
*483 FILLER_1_1169
*484 FILLER_1_1176
*485 FILLER_1_1183
*486 FILLER_1_1190
*487 FILLER_1_1197
*488 FILLER_1_1204
*489 FILLER_1_1211
*490 FILLER_1_1218
*491 FILLER_1_1225
*492 FILLER_1_123
*493 FILLER_1_1232
*494 FILLER_1_1239
*495 FILLER_1_1246
*496 FILLER_1_1253
*497 FILLER_1_1260
*498 FILLER_1_1267
*499 FILLER_1_1274
*500 FILLER_1_1278
*501 FILLER_1_130
*502 FILLER_1_137
*503 FILLER_1_14
*504 FILLER_1_144
*505 FILLER_1_151
*506 FILLER_1_158
*507 FILLER_1_165
*508 FILLER_1_172
*509 FILLER_1_179
*510 FILLER_1_186
*511 FILLER_1_193
*512 FILLER_1_200
*513 FILLER_1_206
*514 FILLER_1_21
*515 FILLER_1_213
*516 FILLER_1_225
*517 FILLER_1_237
*518 FILLER_1_244
*519 FILLER_1_251
*520 FILLER_1_256
*521 FILLER_1_263
*522 FILLER_1_270
*523 FILLER_1_277
*524 FILLER_1_28
*525 FILLER_1_284
*526 FILLER_1_291
*527 FILLER_1_298
*528 FILLER_1_305
*529 FILLER_1_312
*530 FILLER_1_321
*531 FILLER_1_328
*532 FILLER_1_335
*533 FILLER_1_342
*534 FILLER_1_349
*535 FILLER_1_35
*536 FILLER_1_356
*537 FILLER_1_363
*538 FILLER_1_370
*539 FILLER_1_377
*540 FILLER_1_384
*541 FILLER_1_391
*542 FILLER_1_398
*543 FILLER_1_405
*544 FILLER_1_412
*545 FILLER_1_419
*546 FILLER_1_42
*547 FILLER_1_423
*548 FILLER_1_429
*549 FILLER_1_436
*550 FILLER_1_441
*551 FILLER_1_447
*552 FILLER_1_454
*553 FILLER_1_461
*554 FILLER_1_468
*555 FILLER_1_475
*556 FILLER_1_482
*557 FILLER_1_489
*558 FILLER_1_49
*559 FILLER_1_496
*560 FILLER_1_506
*561 FILLER_1_513
*562 FILLER_1_517
*563 FILLER_1_522
*564 FILLER_1_529
*565 FILLER_1_533
*566 FILLER_1_539
*567 FILLER_1_544
*568 FILLER_1_551
*569 FILLER_1_558
*570 FILLER_1_56
*571 FILLER_1_565
*572 FILLER_1_572
*573 FILLER_1_579
*574 FILLER_1_586
*575 FILLER_1_599
*576 FILLER_1_606
*577 FILLER_1_613
*578 FILLER_1_617
*579 FILLER_1_624
*580 FILLER_1_63
*581 FILLER_1_631
*582 FILLER_1_642
*583 FILLER_1_649
*584 FILLER_1_656
*585 FILLER_1_660
*586 FILLER_1_665
*587 FILLER_1_672
*588 FILLER_1_679
*589 FILLER_1_686
*590 FILLER_1_693
*591 FILLER_1_7
*592 FILLER_1_70
*593 FILLER_1_700
*594 FILLER_1_707
*595 FILLER_1_714
*596 FILLER_1_721
*597 FILLER_1_728
*598 FILLER_1_748
*599 FILLER_1_755
*600 FILLER_1_762
*601 FILLER_1_769
*602 FILLER_1_77
*603 FILLER_1_776
*604 FILLER_1_783
*605 FILLER_1_790
*606 FILLER_1_797
*607 FILLER_1_802
*608 FILLER_1_806
*609 FILLER_1_816
*610 FILLER_1_823
*611 FILLER_1_830
*612 FILLER_1_837
*613 FILLER_1_84
*614 FILLER_1_844
*615 FILLER_1_851
*616 FILLER_1_858
*617 FILLER_1_865
*618 FILLER_1_872
*619 FILLER_1_879
*620 FILLER_1_886
*621 FILLER_1_893
*622 FILLER_1_900
*623 FILLER_1_907
*624 FILLER_1_91
*625 FILLER_1_914
*626 FILLER_1_921
*627 FILLER_1_928
*628 FILLER_1_935
*629 FILLER_1_946
*630 FILLER_1_951
*631 FILLER_1_958
*632 FILLER_1_969
*633 FILLER_1_976
*634 FILLER_1_98
*635 FILLER_1_983
*636 FILLER_1_989
*637 FILLER_1_996
*638 FILLER_2_0
*639 FILLER_2_1002
*640 FILLER_2_1009
*641 FILLER_2_1016
*642 FILLER_2_1023
*643 FILLER_2_1030
*644 FILLER_2_1037
*645 FILLER_2_1044
*646 FILLER_2_105
*647 FILLER_2_1051
*648 FILLER_2_1058
*649 FILLER_2_1065
*650 FILLER_2_1072
*651 FILLER_2_1079
*652 FILLER_2_1086
*653 FILLER_2_1093
*654 FILLER_2_1100
*655 FILLER_2_1107
*656 FILLER_2_1114
*657 FILLER_2_112
*658 FILLER_2_1121
*659 FILLER_2_1128
*660 FILLER_2_1135
*661 FILLER_2_1142
*662 FILLER_2_1149
*663 FILLER_2_1156
*664 FILLER_2_1163
*665 FILLER_2_1170
*666 FILLER_2_1177
*667 FILLER_2_1184
*668 FILLER_2_119
*669 FILLER_2_1191
*670 FILLER_2_1198
*671 FILLER_2_1205
*672 FILLER_2_1212
*673 FILLER_2_1219
*674 FILLER_2_1226
*675 FILLER_2_1233
*676 FILLER_2_1240
*677 FILLER_2_1247
*678 FILLER_2_1254
*679 FILLER_2_126
*680 FILLER_2_1261
*681 FILLER_2_1268
*682 FILLER_2_1275
*683 FILLER_2_133
*684 FILLER_2_14
*685 FILLER_2_140
*686 FILLER_2_147
*687 FILLER_2_154
*688 FILLER_2_161
*689 FILLER_2_168
*690 FILLER_2_175
*691 FILLER_2_182
*692 FILLER_2_189
*693 FILLER_2_196
*694 FILLER_2_203
*695 FILLER_2_21
*696 FILLER_2_210
*697 FILLER_2_217
*698 FILLER_2_224
*699 FILLER_2_231
*700 FILLER_2_238
*701 FILLER_2_245
*702 FILLER_2_254
*703 FILLER_2_261
*704 FILLER_2_268
*705 FILLER_2_279
*706 FILLER_2_28
*707 FILLER_2_286
*708 FILLER_2_295
*709 FILLER_2_302
*710 FILLER_2_308
*711 FILLER_2_315
*712 FILLER_2_320
*713 FILLER_2_324
*714 FILLER_2_338
*715 FILLER_2_345
*716 FILLER_2_347
*717 FILLER_2_35
*718 FILLER_2_352
*719 FILLER_2_359
*720 FILLER_2_366
*721 FILLER_2_373
*722 FILLER_2_379
*723 FILLER_2_386
*724 FILLER_2_393
*725 FILLER_2_400
*726 FILLER_2_404
*727 FILLER_2_411
*728 FILLER_2_413
*729 FILLER_2_418
*730 FILLER_2_42
*731 FILLER_2_427
*732 FILLER_2_434
*733 FILLER_2_444
*734 FILLER_2_455
*735 FILLER_2_465
*736 FILLER_2_471
*737 FILLER_2_475
*738 FILLER_2_49
*739 FILLER_2_490
*740 FILLER_2_497
*741 FILLER_2_508
*742 FILLER_2_515
*743 FILLER_2_517
*744 FILLER_2_527
*745 FILLER_2_534
*746 FILLER_2_538
*747 FILLER_2_551
*748 FILLER_2_56
*749 FILLER_2_561
*750 FILLER_2_568
*751 FILLER_2_575
*752 FILLER_2_582
*753 FILLER_2_589
*754 FILLER_2_593
*755 FILLER_2_600
*756 FILLER_2_617
*757 FILLER_2_624
*758 FILLER_2_63
*759 FILLER_2_631
*760 FILLER_2_638
*761 FILLER_2_645
*762 FILLER_2_652
*763 FILLER_2_659
*764 FILLER_2_666
*765 FILLER_2_673
*766 FILLER_2_680
*767 FILLER_2_687
*768 FILLER_2_694
*769 FILLER_2_7
*770 FILLER_2_70
*771 FILLER_2_701
*772 FILLER_2_708
*773 FILLER_2_715
*774 FILLER_2_722
*775 FILLER_2_729
*776 FILLER_2_736
*777 FILLER_2_743
*778 FILLER_2_750
*779 FILLER_2_757
*780 FILLER_2_764
*781 FILLER_2_77
*782 FILLER_2_771
*783 FILLER_2_778
*784 FILLER_2_785
*785 FILLER_2_792
*786 FILLER_2_799
*787 FILLER_2_806
*788 FILLER_2_813
*789 FILLER_2_820
*790 FILLER_2_827
*791 FILLER_2_834
*792 FILLER_2_84
*793 FILLER_2_841
*794 FILLER_2_848
*795 FILLER_2_855
*796 FILLER_2_862
*797 FILLER_2_869
*798 FILLER_2_876
*799 FILLER_2_883
*800 FILLER_2_890
*801 FILLER_2_897
*802 FILLER_2_904
*803 FILLER_2_91
*804 FILLER_2_911
*805 FILLER_2_918
*806 FILLER_2_925
*807 FILLER_2_932
*808 FILLER_2_939
*809 FILLER_2_946
*810 FILLER_2_953
*811 FILLER_2_960
*812 FILLER_2_967
*813 FILLER_2_974
*814 FILLER_2_98
*815 FILLER_2_981
*816 FILLER_2_988
*817 FILLER_2_995
*818 FILLER_3_0
*819 FILLER_3_1000
*820 FILLER_3_1007
*821 FILLER_3_1014
*822 FILLER_3_1021
*823 FILLER_3_1028
*824 FILLER_3_1035
*825 FILLER_3_1042
*826 FILLER_3_1049
*827 FILLER_3_105
*828 FILLER_3_1056
*829 FILLER_3_1063
*830 FILLER_3_1070
*831 FILLER_3_1077
*832 FILLER_3_1084
*833 FILLER_3_1091
*834 FILLER_3_1098
*835 FILLER_3_1105
*836 FILLER_3_1112
*837 FILLER_3_1119
*838 FILLER_3_112
*839 FILLER_3_1126
*840 FILLER_3_1133
*841 FILLER_3_1140
*842 FILLER_3_1147
*843 FILLER_3_1154
*844 FILLER_3_1161
*845 FILLER_3_1168
*846 FILLER_3_1175
*847 FILLER_3_1182
*848 FILLER_3_1189
*849 FILLER_3_119
*850 FILLER_3_1196
*851 FILLER_3_1203
*852 FILLER_3_1210
*853 FILLER_3_1217
*854 FILLER_3_1224
*855 FILLER_3_1231
*856 FILLER_3_1238
*857 FILLER_3_1245
*858 FILLER_3_1252
*859 FILLER_3_1259
*860 FILLER_3_126
*861 FILLER_3_1266
*862 FILLER_3_1273
*863 FILLER_3_1277
*864 FILLER_3_133
*865 FILLER_3_14
*866 FILLER_3_140
*867 FILLER_3_147
*868 FILLER_3_154
*869 FILLER_3_161
*870 FILLER_3_168
*871 FILLER_3_175
*872 FILLER_3_182
*873 FILLER_3_189
*874 FILLER_3_196
*875 FILLER_3_203
*876 FILLER_3_21
*877 FILLER_3_210
*878 FILLER_3_217
*879 FILLER_3_224
*880 FILLER_3_231
*881 FILLER_3_236
*882 FILLER_3_243
*883 FILLER_3_250
*884 FILLER_3_257
*885 FILLER_3_264
*886 FILLER_3_271
*887 FILLER_3_278
*888 FILLER_3_28
*889 FILLER_3_285
*890 FILLER_3_296
*891 FILLER_3_303
*892 FILLER_3_310
*893 FILLER_3_317
*894 FILLER_3_324
*895 FILLER_3_331
*896 FILLER_3_335
*897 FILLER_3_340
*898 FILLER_3_347
*899 FILLER_3_35
*900 FILLER_3_354
*901 FILLER_3_361
*902 FILLER_3_368
*903 FILLER_3_377
*904 FILLER_3_390
*905 FILLER_3_392
*906 FILLER_3_398
*907 FILLER_3_402
*908 FILLER_3_410
*909 FILLER_3_417
*910 FILLER_3_42
*911 FILLER_3_424
*912 FILLER_3_429
*913 FILLER_3_436
*914 FILLER_3_443
*915 FILLER_3_450
*916 FILLER_3_454
*917 FILLER_3_468
*918 FILLER_3_475
*919 FILLER_3_481
*920 FILLER_3_483
*921 FILLER_3_49
*922 FILLER_3_491
*923 FILLER_3_498
*924 FILLER_3_507
*925 FILLER_3_514
*926 FILLER_3_518
*927 FILLER_3_532
*928 FILLER_3_536
*929 FILLER_3_545
*930 FILLER_3_552
*931 FILLER_3_559
*932 FILLER_3_56
*933 FILLER_3_566
*934 FILLER_3_573
*935 FILLER_3_580
*936 FILLER_3_587
*937 FILLER_3_594
*938 FILLER_3_601
*939 FILLER_3_608
*940 FILLER_3_615
*941 FILLER_3_622
*942 FILLER_3_629
*943 FILLER_3_63
*944 FILLER_3_636
*945 FILLER_3_643
*946 FILLER_3_650
*947 FILLER_3_657
*948 FILLER_3_664
*949 FILLER_3_671
*950 FILLER_3_678
*951 FILLER_3_685
*952 FILLER_3_692
*953 FILLER_3_699
*954 FILLER_3_7
*955 FILLER_3_70
*956 FILLER_3_706
*957 FILLER_3_713
*958 FILLER_3_720
*959 FILLER_3_727
*960 FILLER_3_734
*961 FILLER_3_741
*962 FILLER_3_748
*963 FILLER_3_755
*964 FILLER_3_762
*965 FILLER_3_769
*966 FILLER_3_77
*967 FILLER_3_776
*968 FILLER_3_783
*969 FILLER_3_790
*970 FILLER_3_797
*971 FILLER_3_804
*972 FILLER_3_811
*973 FILLER_3_818
*974 FILLER_3_825
*975 FILLER_3_832
*976 FILLER_3_839
*977 FILLER_3_84
*978 FILLER_3_846
*979 FILLER_3_853
*980 FILLER_3_860
*981 FILLER_3_867
*982 FILLER_3_874
*983 FILLER_3_881
*984 FILLER_3_888
*985 FILLER_3_895
*986 FILLER_3_902
*987 FILLER_3_909
*988 FILLER_3_91
*989 FILLER_3_916
*990 FILLER_3_923
*991 FILLER_3_930
*992 FILLER_3_937
*993 FILLER_3_944
*994 FILLER_3_951
*995 FILLER_3_958
*996 FILLER_3_965
*997 FILLER_3_972
*998 FILLER_3_979
*999 FILLER_3_98
*1000 FILLER_3_986
*1001 FILLER_3_993
*1002 FILLER_4_0
*1003 FILLER_4_1002
*1004 FILLER_4_1009
*1005 FILLER_4_1016
*1006 FILLER_4_1023
*1007 FILLER_4_1030
*1008 FILLER_4_1037
*1009 FILLER_4_1044
*1010 FILLER_4_105
*1011 FILLER_4_1051
*1012 FILLER_4_1058
*1013 FILLER_4_1065
*1014 FILLER_4_1072
*1015 FILLER_4_1079
*1016 FILLER_4_1086
*1017 FILLER_4_1093
*1018 FILLER_4_1100
*1019 FILLER_4_1107
*1020 FILLER_4_1114
*1021 FILLER_4_112
*1022 FILLER_4_1121
*1023 FILLER_4_1128
*1024 FILLER_4_1135
*1025 FILLER_4_1142
*1026 FILLER_4_1149
*1027 FILLER_4_1156
*1028 FILLER_4_1163
*1029 FILLER_4_1170
*1030 FILLER_4_1177
*1031 FILLER_4_1184
*1032 FILLER_4_119
*1033 FILLER_4_1191
*1034 FILLER_4_1198
*1035 FILLER_4_1205
*1036 FILLER_4_1212
*1037 FILLER_4_1219
*1038 FILLER_4_1226
*1039 FILLER_4_1233
*1040 FILLER_4_1240
*1041 FILLER_4_1247
*1042 FILLER_4_1254
*1043 FILLER_4_126
*1044 FILLER_4_1261
*1045 FILLER_4_1268
*1046 FILLER_4_1275
*1047 FILLER_4_133
*1048 FILLER_4_14
*1049 FILLER_4_140
*1050 FILLER_4_147
*1051 FILLER_4_154
*1052 FILLER_4_161
*1053 FILLER_4_168
*1054 FILLER_4_175
*1055 FILLER_4_182
*1056 FILLER_4_189
*1057 FILLER_4_196
*1058 FILLER_4_203
*1059 FILLER_4_21
*1060 FILLER_4_210
*1061 FILLER_4_217
*1062 FILLER_4_224
*1063 FILLER_4_231
*1064 FILLER_4_238
*1065 FILLER_4_245
*1066 FILLER_4_247
*1067 FILLER_4_257
*1068 FILLER_4_264
*1069 FILLER_4_273
*1070 FILLER_4_28
*1071 FILLER_4_280
*1072 FILLER_4_282
*1073 FILLER_4_288
*1074 FILLER_4_296
*1075 FILLER_4_303
*1076 FILLER_4_314
*1077 FILLER_4_321
*1078 FILLER_4_325
*1079 FILLER_4_333
*1080 FILLER_4_340
*1081 FILLER_4_347
*1082 FILLER_4_35
*1083 FILLER_4_354
*1084 FILLER_4_358
*1085 FILLER_4_368
*1086 FILLER_4_375
*1087 FILLER_4_377
*1088 FILLER_4_388
*1089 FILLER_4_395
*1090 FILLER_4_402
*1091 FILLER_4_409
*1092 FILLER_4_415
*1093 FILLER_4_42
*1094 FILLER_4_422
*1095 FILLER_4_426
*1096 FILLER_4_432
*1097 FILLER_4_434
*1098 FILLER_4_451
*1099 FILLER_4_458
*1100 FILLER_4_465
*1101 FILLER_4_472
*1102 FILLER_4_479
*1103 FILLER_4_486
*1104 FILLER_4_49
*1105 FILLER_4_493
*1106 FILLER_4_502
*1107 FILLER_4_509
*1108 FILLER_4_516
*1109 FILLER_4_523
*1110 FILLER_4_530
*1111 FILLER_4_534
*1112 FILLER_4_540
*1113 FILLER_4_547
*1114 FILLER_4_554
*1115 FILLER_4_56
*1116 FILLER_4_561
*1117 FILLER_4_568
*1118 FILLER_4_575
*1119 FILLER_4_582
*1120 FILLER_4_589
*1121 FILLER_4_596
*1122 FILLER_4_603
*1123 FILLER_4_610
*1124 FILLER_4_617
*1125 FILLER_4_624
*1126 FILLER_4_63
*1127 FILLER_4_631
*1128 FILLER_4_638
*1129 FILLER_4_645
*1130 FILLER_4_652
*1131 FILLER_4_659
*1132 FILLER_4_666
*1133 FILLER_4_673
*1134 FILLER_4_680
*1135 FILLER_4_687
*1136 FILLER_4_694
*1137 FILLER_4_7
*1138 FILLER_4_70
*1139 FILLER_4_701
*1140 FILLER_4_708
*1141 FILLER_4_715
*1142 FILLER_4_722
*1143 FILLER_4_729
*1144 FILLER_4_736
*1145 FILLER_4_743
*1146 FILLER_4_750
*1147 FILLER_4_757
*1148 FILLER_4_764
*1149 FILLER_4_77
*1150 FILLER_4_771
*1151 FILLER_4_778
*1152 FILLER_4_785
*1153 FILLER_4_792
*1154 FILLER_4_799
*1155 FILLER_4_806
*1156 FILLER_4_813
*1157 FILLER_4_820
*1158 FILLER_4_827
*1159 FILLER_4_834
*1160 FILLER_4_84
*1161 FILLER_4_841
*1162 FILLER_4_848
*1163 FILLER_4_855
*1164 FILLER_4_862
*1165 FILLER_4_869
*1166 FILLER_4_876
*1167 FILLER_4_883
*1168 FILLER_4_890
*1169 FILLER_4_897
*1170 FILLER_4_904
*1171 FILLER_4_91
*1172 FILLER_4_911
*1173 FILLER_4_918
*1174 FILLER_4_925
*1175 FILLER_4_932
*1176 FILLER_4_939
*1177 FILLER_4_946
*1178 FILLER_4_953
*1179 FILLER_4_960
*1180 FILLER_4_967
*1181 FILLER_4_974
*1182 FILLER_4_98
*1183 FILLER_4_981
*1184 FILLER_4_988
*1185 FILLER_4_995
*1186 FILLER_5_0
*1187 FILLER_5_1005
*1188 FILLER_5_1012
*1189 FILLER_5_1019
*1190 FILLER_5_1026
*1191 FILLER_5_1033
*1192 FILLER_5_1040
*1193 FILLER_5_1047
*1194 FILLER_5_105
*1195 FILLER_5_1054
*1196 FILLER_5_1061
*1197 FILLER_5_1068
*1198 FILLER_5_1075
*1199 FILLER_5_1082
*1200 FILLER_5_1089
*1201 FILLER_5_1096
*1202 FILLER_5_1103
*1203 FILLER_5_1110
*1204 FILLER_5_1117
*1205 FILLER_5_112
*1206 FILLER_5_1124
*1207 FILLER_5_1131
*1208 FILLER_5_1138
*1209 FILLER_5_1145
*1210 FILLER_5_1152
*1211 FILLER_5_1159
*1212 FILLER_5_1166
*1213 FILLER_5_1173
*1214 FILLER_5_1180
*1215 FILLER_5_1187
*1216 FILLER_5_119
*1217 FILLER_5_1194
*1218 FILLER_5_1201
*1219 FILLER_5_1208
*1220 FILLER_5_1215
*1221 FILLER_5_1222
*1222 FILLER_5_1229
*1223 FILLER_5_1236
*1224 FILLER_5_1243
*1225 FILLER_5_1250
*1226 FILLER_5_1257
*1227 FILLER_5_126
*1228 FILLER_5_1264
*1229 FILLER_5_1271
*1230 FILLER_5_1278
*1231 FILLER_5_133
*1232 FILLER_5_14
*1233 FILLER_5_140
*1234 FILLER_5_147
*1235 FILLER_5_154
*1236 FILLER_5_161
*1237 FILLER_5_168
*1238 FILLER_5_175
*1239 FILLER_5_182
*1240 FILLER_5_189
*1241 FILLER_5_196
*1242 FILLER_5_203
*1243 FILLER_5_21
*1244 FILLER_5_210
*1245 FILLER_5_217
*1246 FILLER_5_224
*1247 FILLER_5_231
*1248 FILLER_5_238
*1249 FILLER_5_245
*1250 FILLER_5_252
*1251 FILLER_5_259
*1252 FILLER_5_266
*1253 FILLER_5_273
*1254 FILLER_5_28
*1255 FILLER_5_280
*1256 FILLER_5_287
*1257 FILLER_5_294
*1258 FILLER_5_303
*1259 FILLER_5_310
*1260 FILLER_5_317
*1261 FILLER_5_324
*1262 FILLER_5_331
*1263 FILLER_5_338
*1264 FILLER_5_35
*1265 FILLER_5_350
*1266 FILLER_5_357
*1267 FILLER_5_364
*1268 FILLER_5_371
*1269 FILLER_5_378
*1270 FILLER_5_385
*1271 FILLER_5_392
*1272 FILLER_5_399
*1273 FILLER_5_409
*1274 FILLER_5_416
*1275 FILLER_5_42
*1276 FILLER_5_423
*1277 FILLER_5_430
*1278 FILLER_5_437
*1279 FILLER_5_452
*1280 FILLER_5_459
*1281 FILLER_5_466
*1282 FILLER_5_473
*1283 FILLER_5_480
*1284 FILLER_5_487
*1285 FILLER_5_49
*1286 FILLER_5_494
*1287 FILLER_5_501
*1288 FILLER_5_508
*1289 FILLER_5_515
*1290 FILLER_5_522
*1291 FILLER_5_529
*1292 FILLER_5_536
*1293 FILLER_5_543
*1294 FILLER_5_550
*1295 FILLER_5_557
*1296 FILLER_5_56
*1297 FILLER_5_564
*1298 FILLER_5_571
*1299 FILLER_5_578
*1300 FILLER_5_585
*1301 FILLER_5_592
*1302 FILLER_5_599
*1303 FILLER_5_606
*1304 FILLER_5_613
*1305 FILLER_5_620
*1306 FILLER_5_627
*1307 FILLER_5_63
*1308 FILLER_5_634
*1309 FILLER_5_641
*1310 FILLER_5_648
*1311 FILLER_5_655
*1312 FILLER_5_662
*1313 FILLER_5_669
*1314 FILLER_5_676
*1315 FILLER_5_683
*1316 FILLER_5_690
*1317 FILLER_5_697
*1318 FILLER_5_7
*1319 FILLER_5_70
*1320 FILLER_5_704
*1321 FILLER_5_711
*1322 FILLER_5_718
*1323 FILLER_5_725
*1324 FILLER_5_732
*1325 FILLER_5_739
*1326 FILLER_5_746
*1327 FILLER_5_753
*1328 FILLER_5_760
*1329 FILLER_5_767
*1330 FILLER_5_77
*1331 FILLER_5_774
*1332 FILLER_5_781
*1333 FILLER_5_788
*1334 FILLER_5_795
*1335 FILLER_5_802
*1336 FILLER_5_809
*1337 FILLER_5_816
*1338 FILLER_5_823
*1339 FILLER_5_830
*1340 FILLER_5_837
*1341 FILLER_5_84
*1342 FILLER_5_844
*1343 FILLER_5_851
*1344 FILLER_5_858
*1345 FILLER_5_865
*1346 FILLER_5_872
*1347 FILLER_5_879
*1348 FILLER_5_886
*1349 FILLER_5_893
*1350 FILLER_5_900
*1351 FILLER_5_907
*1352 FILLER_5_91
*1353 FILLER_5_914
*1354 FILLER_5_921
*1355 FILLER_5_928
*1356 FILLER_5_935
*1357 FILLER_5_942
*1358 FILLER_5_949
*1359 FILLER_5_956
*1360 FILLER_5_963
*1361 FILLER_5_970
*1362 FILLER_5_977
*1363 FILLER_5_98
*1364 FILLER_5_984
*1365 FILLER_5_991
*1366 FILLER_5_998
*1367 FILLER_6_0
*1368 FILLER_6_1001
*1369 FILLER_6_1008
*1370 FILLER_6_1015
*1371 FILLER_6_1022
*1372 FILLER_6_1029
*1373 FILLER_6_1036
*1374 FILLER_6_1043
*1375 FILLER_6_105
*1376 FILLER_6_1050
*1377 FILLER_6_1057
*1378 FILLER_6_1064
*1379 FILLER_6_1071
*1380 FILLER_6_1078
*1381 FILLER_6_1085
*1382 FILLER_6_1092
*1383 FILLER_6_1099
*1384 FILLER_6_1106
*1385 FILLER_6_1113
*1386 FILLER_6_112
*1387 FILLER_6_1120
*1388 FILLER_6_1127
*1389 FILLER_6_1134
*1390 FILLER_6_1141
*1391 FILLER_6_1148
*1392 FILLER_6_1155
*1393 FILLER_6_1162
*1394 FILLER_6_1169
*1395 FILLER_6_1176
*1396 FILLER_6_1183
*1397 FILLER_6_119
*1398 FILLER_6_1190
*1399 FILLER_6_1197
*1400 FILLER_6_1204
*1401 FILLER_6_1211
*1402 FILLER_6_1218
*1403 FILLER_6_1225
*1404 FILLER_6_1232
*1405 FILLER_6_1239
*1406 FILLER_6_1246
*1407 FILLER_6_1253
*1408 FILLER_6_126
*1409 FILLER_6_1260
*1410 FILLER_6_1267
*1411 FILLER_6_1274
*1412 FILLER_6_1278
*1413 FILLER_6_133
*1414 FILLER_6_14
*1415 FILLER_6_140
*1416 FILLER_6_147
*1417 FILLER_6_154
*1418 FILLER_6_161
*1419 FILLER_6_168
*1420 FILLER_6_175
*1421 FILLER_6_182
*1422 FILLER_6_189
*1423 FILLER_6_196
*1424 FILLER_6_203
*1425 FILLER_6_21
*1426 FILLER_6_210
*1427 FILLER_6_217
*1428 FILLER_6_224
*1429 FILLER_6_231
*1430 FILLER_6_238
*1431 FILLER_6_245
*1432 FILLER_6_252
*1433 FILLER_6_259
*1434 FILLER_6_266
*1435 FILLER_6_273
*1436 FILLER_6_28
*1437 FILLER_6_280
*1438 FILLER_6_287
*1439 FILLER_6_294
*1440 FILLER_6_301
*1441 FILLER_6_308
*1442 FILLER_6_315
*1443 FILLER_6_322
*1444 FILLER_6_329
*1445 FILLER_6_336
*1446 FILLER_6_343
*1447 FILLER_6_35
*1448 FILLER_6_350
*1449 FILLER_6_357
*1450 FILLER_6_364
*1451 FILLER_6_371
*1452 FILLER_6_378
*1453 FILLER_6_385
*1454 FILLER_6_392
*1455 FILLER_6_399
*1456 FILLER_6_406
*1457 FILLER_6_413
*1458 FILLER_6_42
*1459 FILLER_6_420
*1460 FILLER_6_427
*1461 FILLER_6_434
*1462 FILLER_6_441
*1463 FILLER_6_448
*1464 FILLER_6_455
*1465 FILLER_6_462
*1466 FILLER_6_469
*1467 FILLER_6_476
*1468 FILLER_6_483
*1469 FILLER_6_49
*1470 FILLER_6_490
*1471 FILLER_6_497
*1472 FILLER_6_504
*1473 FILLER_6_511
*1474 FILLER_6_518
*1475 FILLER_6_525
*1476 FILLER_6_532
*1477 FILLER_6_539
*1478 FILLER_6_546
*1479 FILLER_6_553
*1480 FILLER_6_56
*1481 FILLER_6_560
*1482 FILLER_6_567
*1483 FILLER_6_574
*1484 FILLER_6_581
*1485 FILLER_6_588
*1486 FILLER_6_595
*1487 FILLER_6_602
*1488 FILLER_6_609
*1489 FILLER_6_616
*1490 FILLER_6_623
*1491 FILLER_6_63
*1492 FILLER_6_630
*1493 FILLER_6_637
*1494 FILLER_6_644
*1495 FILLER_6_651
*1496 FILLER_6_658
*1497 FILLER_6_665
*1498 FILLER_6_672
*1499 FILLER_6_679
*1500 FILLER_6_686
*1501 FILLER_6_693
*1502 FILLER_6_7
*1503 FILLER_6_70
*1504 FILLER_6_700
*1505 FILLER_6_707
*1506 FILLER_6_714
*1507 FILLER_6_721
*1508 FILLER_6_728
*1509 FILLER_6_735
*1510 FILLER_6_742
*1511 FILLER_6_749
*1512 FILLER_6_756
*1513 FILLER_6_763
*1514 FILLER_6_77
*1515 FILLER_6_770
*1516 FILLER_6_777
*1517 FILLER_6_784
*1518 FILLER_6_791
*1519 FILLER_6_798
*1520 FILLER_6_805
*1521 FILLER_6_812
*1522 FILLER_6_819
*1523 FILLER_6_826
*1524 FILLER_6_833
*1525 FILLER_6_84
*1526 FILLER_6_840
*1527 FILLER_6_847
*1528 FILLER_6_854
*1529 FILLER_6_861
*1530 FILLER_6_868
*1531 FILLER_6_875
*1532 FILLER_6_882
*1533 FILLER_6_889
*1534 FILLER_6_896
*1535 FILLER_6_903
*1536 FILLER_6_91
*1537 FILLER_6_910
*1538 FILLER_6_917
*1539 FILLER_6_924
*1540 FILLER_6_931
*1541 FILLER_6_938
*1542 FILLER_6_945
*1543 FILLER_6_952
*1544 FILLER_6_959
*1545 FILLER_6_966
*1546 FILLER_6_973
*1547 FILLER_6_98
*1548 FILLER_6_980
*1549 FILLER_6_987
*1550 FILLER_6_994
*1551 FILLER_7_0
*1552 FILLER_7_1001
*1553 FILLER_7_1008
*1554 FILLER_7_1015
*1555 FILLER_7_1022
*1556 FILLER_7_1029
*1557 FILLER_7_1036
*1558 FILLER_7_1043
*1559 FILLER_7_105
*1560 FILLER_7_1050
*1561 FILLER_7_1057
*1562 FILLER_7_1064
*1563 FILLER_7_1071
*1564 FILLER_7_1078
*1565 FILLER_7_1085
*1566 FILLER_7_1092
*1567 FILLER_7_1099
*1568 FILLER_7_1106
*1569 FILLER_7_1113
*1570 FILLER_7_112
*1571 FILLER_7_1120
*1572 FILLER_7_1127
*1573 FILLER_7_1134
*1574 FILLER_7_1141
*1575 FILLER_7_1148
*1576 FILLER_7_1155
*1577 FILLER_7_1162
*1578 FILLER_7_1169
*1579 FILLER_7_1176
*1580 FILLER_7_1183
*1581 FILLER_7_119
*1582 FILLER_7_1190
*1583 FILLER_7_1197
*1584 FILLER_7_1204
*1585 FILLER_7_1211
*1586 FILLER_7_1218
*1587 FILLER_7_1225
*1588 FILLER_7_1232
*1589 FILLER_7_1239
*1590 FILLER_7_1246
*1591 FILLER_7_1253
*1592 FILLER_7_126
*1593 FILLER_7_1260
*1594 FILLER_7_1267
*1595 FILLER_7_1274
*1596 FILLER_7_1278
*1597 FILLER_7_133
*1598 FILLER_7_14
*1599 FILLER_7_140
*1600 FILLER_7_147
*1601 FILLER_7_154
*1602 FILLER_7_161
*1603 FILLER_7_168
*1604 FILLER_7_175
*1605 FILLER_7_182
*1606 FILLER_7_189
*1607 FILLER_7_196
*1608 FILLER_7_203
*1609 FILLER_7_21
*1610 FILLER_7_210
*1611 FILLER_7_217
*1612 FILLER_7_224
*1613 FILLER_7_231
*1614 FILLER_7_238
*1615 FILLER_7_245
*1616 FILLER_7_252
*1617 FILLER_7_259
*1618 FILLER_7_266
*1619 FILLER_7_273
*1620 FILLER_7_28
*1621 FILLER_7_280
*1622 FILLER_7_287
*1623 FILLER_7_294
*1624 FILLER_7_301
*1625 FILLER_7_308
*1626 FILLER_7_315
*1627 FILLER_7_322
*1628 FILLER_7_329
*1629 FILLER_7_336
*1630 FILLER_7_343
*1631 FILLER_7_35
*1632 FILLER_7_350
*1633 FILLER_7_357
*1634 FILLER_7_364
*1635 FILLER_7_371
*1636 FILLER_7_378
*1637 FILLER_7_385
*1638 FILLER_7_392
*1639 FILLER_7_399
*1640 FILLER_7_406
*1641 FILLER_7_413
*1642 FILLER_7_42
*1643 FILLER_7_420
*1644 FILLER_7_427
*1645 FILLER_7_434
*1646 FILLER_7_441
*1647 FILLER_7_448
*1648 FILLER_7_455
*1649 FILLER_7_462
*1650 FILLER_7_469
*1651 FILLER_7_476
*1652 FILLER_7_483
*1653 FILLER_7_49
*1654 FILLER_7_490
*1655 FILLER_7_497
*1656 FILLER_7_504
*1657 FILLER_7_511
*1658 FILLER_7_518
*1659 FILLER_7_525
*1660 FILLER_7_532
*1661 FILLER_7_539
*1662 FILLER_7_546
*1663 FILLER_7_553
*1664 FILLER_7_56
*1665 FILLER_7_560
*1666 FILLER_7_567
*1667 FILLER_7_574
*1668 FILLER_7_581
*1669 FILLER_7_588
*1670 FILLER_7_595
*1671 FILLER_7_602
*1672 FILLER_7_609
*1673 FILLER_7_616
*1674 FILLER_7_623
*1675 FILLER_7_63
*1676 FILLER_7_630
*1677 FILLER_7_637
*1678 FILLER_7_644
*1679 FILLER_7_651
*1680 FILLER_7_658
*1681 FILLER_7_665
*1682 FILLER_7_672
*1683 FILLER_7_679
*1684 FILLER_7_686
*1685 FILLER_7_693
*1686 FILLER_7_7
*1687 FILLER_7_70
*1688 FILLER_7_700
*1689 FILLER_7_707
*1690 FILLER_7_714
*1691 FILLER_7_721
*1692 FILLER_7_728
*1693 FILLER_7_735
*1694 FILLER_7_742
*1695 FILLER_7_749
*1696 FILLER_7_756
*1697 FILLER_7_763
*1698 FILLER_7_77
*1699 FILLER_7_770
*1700 FILLER_7_777
*1701 FILLER_7_784
*1702 FILLER_7_791
*1703 FILLER_7_798
*1704 FILLER_7_805
*1705 FILLER_7_812
*1706 FILLER_7_819
*1707 FILLER_7_826
*1708 FILLER_7_833
*1709 FILLER_7_84
*1710 FILLER_7_840
*1711 FILLER_7_847
*1712 FILLER_7_854
*1713 FILLER_7_861
*1714 FILLER_7_868
*1715 FILLER_7_875
*1716 FILLER_7_882
*1717 FILLER_7_889
*1718 FILLER_7_896
*1719 FILLER_7_903
*1720 FILLER_7_91
*1721 FILLER_7_910
*1722 FILLER_7_917
*1723 FILLER_7_924
*1724 FILLER_7_931
*1725 FILLER_7_938
*1726 FILLER_7_945
*1727 FILLER_7_952
*1728 FILLER_7_959
*1729 FILLER_7_966
*1730 FILLER_7_973
*1731 FILLER_7_98
*1732 FILLER_7_980
*1733 FILLER_7_987
*1734 FILLER_7_994
*1735 _080_
*1736 _081_
*1737 _082_
*1738 _083_
*1739 _084_
*1740 _085_
*1741 _086_
*1742 _087_
*1743 _088_
*1744 _089_
*1745 _090_
*1746 _091_
*1747 _092_
*1748 _093_
*1749 _094_
*1750 _095_
*1751 _096_
*1752 _097_
*1753 _098_
*1754 _099_
*1755 _100_
*1756 _101_
*1757 _102_
*1758 _103_
*1759 _104_
*1760 _105_
*1761 _106_
*1762 _107_
*1763 _108_
*1764 _109_
*1765 _110_
*1766 _111_
*1767 _112_
*1768 _113_
*1769 _114_
*1770 _115_
*1771 _116_
*1772 _117_
*1773 _118_
*1774 _119_
*1775 _120_
*1776 _121_
*1777 _122_
*1778 _123_
*1779 _124_
*1780 _125_
*1781 _126_
*1782 _127_
*1783 _128_
*1784 _129_
*1785 _130_
*1786 _131_
*1787 _132_
*1788 _133_
*1789 _134_
*1790 _135_
*1791 _136_
*1792 _137_
*1793 _138_
*1794 _139_
*1795 _140_
*1796 _141_
*1797 _142_
*1798 _143_
*1799 _144_
*1800 _145_
*1801 _146_
*1802 _147_
*1803 _148_
*1804 _149_
*1805 _150_
*1806 _151_
*1807 _152_
*1808 _153_
*1809 _154_
*1810 _155_
*1811 _156_
*1812 _157_
*1813 _158_
*1814 _159_
*1815 _160_
*1816 _161_
*1817 _162_
*1818 _163_
*1819 _164_
*1820 _165_
*1821 _166_
*1822 _167_
*1823 _168_
*1824 _169_
*1825 _170_
*1826 _171_
*1827 _172_
*1828 _173_
*1829 _174_
*1830 _175_
*1831 _176_
*1832 _177_
*1833 _178_
*1834 _179_
*1835 _180_
*1836 _181_
*1837 _182_
*1838 _183_
*1839 _184_
*1840 _185_
*1841 _186_
*1842 _187_
*1843 _188_
*1844 _189_
*1845 _190_
*1846 _191_
*1847 _192_
*1848 _193_
*1849 _194_
*1850 _195_
*1851 _196_
*1852 _197_
*1853 _198_
*1854 _199_
*1855 _200_
*1856 _201_
*1857 _202_
*1858 _203_
*1859 _204_
*1860 _205_
*1861 _206_
*1862 _207_
*1863 _208_
*1864 _209_
*1865 _210_
*1866 _211_
*1867 _212_
*1868 _213_
*1869 _214_
*1870 _215_
*1871 _216_
*1872 _217_
*1873 _218_
*1874 _219_
*1875 _220_
*1876 _221_
*1877 _222_
*1878 _223_
*1879 _224_
*1880 _225_
*1881 _226_
*1882 _227_
*1883 _228_
*1884 _229_
*1885 _230_
*1886 _231_
*1887 _232_
*1888 _233_
*1889 _234_
*1890 _235_
*1891 _236_
*1892 _237_
*1893 _238_
*1894 _239_
*1895 _240_
*1896 _241_
*1897 _242_
*1898 _243_
*1899 _244_
*1900 _245_
*1901 _246_
*1902 _247_
*1903 _248_
*1904 _249_
*1905 _250_
*1906 _251_
*1907 _252_
*1908 _253_
*1909 _254_
*1910 _255_
*1911 _256_
*1912 _257_
*1913 _258_
*1914 _259_
*1915 _260_
*1916 _261_
*1917 _262_
*1918 _263_
*1919 _264_
*1920 _265_
*1921 _266_
*1922 _267_
*1923 _268_
*1924 _269_
*1925 _270_
*1926 _271_
*1927 _272_
*1928 _273_
*1929 _274_
*1930 _275_
*1931 _276_
*1932 _277_
*1933 _278_
*1934 _279_
*1935 _280_
*1936 _281_
*1937 _282_
*1938 _283_
*1939 _284_
*1940 _285_
*1941 _286_
*1942 _287_
*1943 _288_
*1944 _289_
*1945 _290_
*1946 _291_
*1947 _292_
*1948 _293_
*1949 _294_
*1950 _295_
*1951 _296_
*1952 _297_
*1953 _298_
*1954 _299_
*1955 _300_
*1956 _301_
*1957 _302_
*1958 _303_
*1959 _304_
*1960 _305_
*1961 _306_
*1962 _307_
*1963 _308_
*1964 _309_
*1965 _310_
*1966 _311_
*1967 _312_
*1968 _313_
*1969 _314_
*1970 _315_
*1971 _316_
*1972 _317_
*1973 _318_
*1974 _319_
*1975 _320_
*1976 _321_
*1977 _322_
*1978 _323_
*1979 _324_
*1980 _325_
*1981 _326_
*1982 _327_
*1983 _328_
*1984 _329_
*1985 _330_
*1986 _331_
*1987 _332_
*1988 _333_
*1989 _334_
*1990 _335_
*1991 _336_
*1992 _337_
*1993 _338_
*1994 _339_
*1995 _340_
*1996 _341_
*1997 _342_
*1998 _343_
*1999 _344_
*2000 _345_
*2001 _346_
*2002 _347_
*2003 _348_
*2004 _349_
*2005 _350_
*2006 _351_
*2007 _352_
*2008 _353_
*2009 _354_
*2010 _355_
*2011 _356_
*2012 _357_
*2013 _358_
*2014 _359_
*2015 _360_
*2016 _361_
*2017 _362_
*2018 _363_
*2019 _364_
*2020 _365_
*2021 _366_
*2022 _367_
*2023 _368_
*2024 _369_
*2025 _370_
*2026 _371_
*2027 _372_
*2028 _373_
*2029 _374_
*2030 _375_
*2031 _376_
*2032 _377_
*2033 _378_
*2034 _379_
*2035 _380_
*2036 _381_
*2037 _382_
*2038 _383_
*2039 _384_
*2040 _385_
*2041 _386_
*2042 _387_
*2043 _388_
*2044 _389_
*2045 _390_
*2046 _391_
*2047 _392_
*2048 _393_
*2049 _394_
*2050 _395_
*2051 _396_
*2052 _397_
*2053 _398_
*2054 _399_
*2055 _400_
*2056 _401_
*2057 _402_
*2058 _403_
*2059 _404_
*2060 _405_
*2061 _406_
*2062 _407_
*2063 _408_
*2064 _409_
*2065 _410_
*2066 _411_
*2067 _412_
*2068 _413_
*2069 _414_
*2070 _415_

*PORTS
ena_i I
input_ni[0] I
input_ni[1] I
input_ni[2] I
input_ni[3] I
input_ni[4] I
input_ni[5] I
input_ni[6] I
output_no[0] O
output_no[100] O
output_no[101] O
output_no[102] O
output_no[103] O
output_no[104] O
output_no[105] O
output_no[106] O
output_no[107] O
output_no[108] O
output_no[109] O
output_no[10] O
output_no[110] O
output_no[111] O
output_no[112] O
output_no[113] O
output_no[114] O
output_no[115] O
output_no[116] O
output_no[117] O
output_no[118] O
output_no[119] O
output_no[11] O
output_no[120] O
output_no[121] O
output_no[122] O
output_no[123] O
output_no[124] O
output_no[125] O
output_no[126] O
output_no[127] O
output_no[12] O
output_no[13] O
output_no[14] O
output_no[15] O
output_no[16] O
output_no[17] O
output_no[18] O
output_no[19] O
output_no[1] O
output_no[20] O
output_no[21] O
output_no[22] O
output_no[23] O
output_no[24] O
output_no[25] O
output_no[26] O
output_no[27] O
output_no[28] O
output_no[29] O
output_no[2] O
output_no[30] O
output_no[31] O
output_no[32] O
output_no[33] O
output_no[34] O
output_no[35] O
output_no[36] O
output_no[37] O
output_no[38] O
output_no[39] O
output_no[3] O
output_no[40] O
output_no[41] O
output_no[42] O
output_no[43] O
output_no[44] O
output_no[45] O
output_no[46] O
output_no[47] O
output_no[48] O
output_no[49] O
output_no[4] O
output_no[50] O
output_no[51] O
output_no[52] O
output_no[53] O
output_no[54] O
output_no[55] O
output_no[56] O
output_no[57] O
output_no[58] O
output_no[59] O
output_no[5] O
output_no[60] O
output_no[61] O
output_no[62] O
output_no[63] O
output_no[64] O
output_no[65] O
output_no[66] O
output_no[67] O
output_no[68] O
output_no[69] O
output_no[6] O
output_no[70] O
output_no[71] O
output_no[72] O
output_no[73] O
output_no[74] O
output_no[75] O
output_no[76] O
output_no[77] O
output_no[78] O
output_no[79] O
output_no[7] O
output_no[80] O
output_no[81] O
output_no[82] O
output_no[83] O
output_no[84] O
output_no[85] O
output_no[86] O
output_no[87] O
output_no[88] O
output_no[89] O
output_no[8] O
output_no[90] O
output_no[91] O
output_no[92] O
output_no[93] O
output_no[94] O
output_no[95] O
output_no[96] O
output_no[97] O
output_no[98] O
output_no[99] O
output_no[9] O
output_o[0] O
output_o[100] O
output_o[101] O
output_o[102] O
output_o[103] O
output_o[104] O
output_o[105] O
output_o[106] O
output_o[107] O
output_o[108] O
output_o[109] O
output_o[10] O
output_o[110] O
output_o[111] O
output_o[112] O
output_o[113] O
output_o[114] O
output_o[115] O
output_o[116] O
output_o[117] O
output_o[118] O
output_o[119] O
output_o[11] O
output_o[120] O
output_o[121] O
output_o[122] O
output_o[123] O
output_o[124] O
output_o[125] O
output_o[126] O
output_o[127] O
output_o[12] O
output_o[13] O
output_o[14] O
output_o[15] O
output_o[16] O
output_o[17] O
output_o[18] O
output_o[19] O
output_o[1] O
output_o[20] O
output_o[21] O
output_o[22] O
output_o[23] O
output_o[24] O
output_o[25] O
output_o[26] O
output_o[27] O
output_o[28] O
output_o[29] O
output_o[2] O
output_o[30] O
output_o[31] O
output_o[32] O
output_o[33] O
output_o[34] O
output_o[35] O
output_o[36] O
output_o[37] O
output_o[38] O
output_o[39] O
output_o[3] O
output_o[40] O
output_o[41] O
output_o[42] O
output_o[43] O
output_o[44] O
output_o[45] O
output_o[46] O
output_o[47] O
output_o[48] O
output_o[49] O
output_o[4] O
output_o[50] O
output_o[51] O
output_o[52] O
output_o[53] O
output_o[54] O
output_o[55] O
output_o[56] O
output_o[57] O
output_o[58] O
output_o[59] O
output_o[5] O
output_o[60] O
output_o[61] O
output_o[62] O
output_o[63] O
output_o[64] O
output_o[65] O
output_o[66] O
output_o[67] O
output_o[68] O
output_o[69] O
output_o[6] O
output_o[70] O
output_o[71] O
output_o[72] O
output_o[73] O
output_o[74] O
output_o[75] O
output_o[76] O
output_o[77] O
output_o[78] O
output_o[79] O
output_o[7] O
output_o[80] O
output_o[81] O
output_o[82] O
output_o[83] O
output_o[84] O
output_o[85] O
output_o[86] O
output_o[87] O
output_o[88] O
output_o[89] O
output_o[8] O
output_o[90] O
output_o[91] O
output_o[92] O
output_o[93] O
output_o[94] O
output_o[95] O
output_o[96] O
output_o[97] O
output_o[98] O
output_o[99] O
output_o[9] O

*D_NET *3 0.053308
*CONN
*P ena_i I
*I *1869:A I *D sg13g2_nand3_1
*I *1740:B I *D sg13g2_nand2_1
*I *1823:C I *D sg13g2_nand4_1
*I *1868:A I *D sg13g2_and3_1
*I *1819:C I *D sg13g2_nand4_1
*I *1864:A I *D sg13g2_and3_1
*I *1865:A I *D sg13g2_nand3_1
*I *1849:A I *D sg13g2_nand3_1
*I *1853:A I *D sg13g2_nand3_1
*I *1848:A I *D sg13g2_and3_1
*I *1852:A I *D sg13g2_and3_1
*I *1872:A I *D sg13g2_and2_1
*I *1873:A I *D sg13g2_nand2_1
*I *1834:C I *D sg13g2_nand4_1
*I *1838:C I *D sg13g2_nand4_1
*I *1860:C I *D sg13g2_and4_1
*I *1845:C I *D sg13g2_nand4_1
*I *1861:C I *D sg13g2_nand4_1
*I *1857:A I *D sg13g2_nand3_1
*I *1856:A I *D sg13g2_and3_1
*I *1844:C I *D sg13g2_and4_1
*I *1826:C I *D sg13g2_nand4_1
*I *1841:C I *D sg13g2_nand4_1
*I *1830:C I *D sg13g2_nand3b_1
*I *1736:A I *D sg13g2_inv_1
*I *1815:A I *D sg13g2_nand2_1
*CAP
1 ena_i 0.0010801
2 *1869:A 0
3 *1740:B 0.000103538
4 *1823:C 3.25382e-05
5 *1868:A 0
6 *1819:C 4.15134e-05
7 *1864:A 0
8 *1865:A 0.000381088
9 *1849:A 0
10 *1853:A 0
11 *1848:A 4.84577e-05
12 *1852:A 0
13 *1872:A 0.000373925
14 *1873:A 0.000307012
15 *1834:C 4.64061e-05
16 *1838:C 2.80955e-05
17 *1860:C 4.85549e-05
18 *1845:C 0.000391924
19 *1861:C 0
20 *1857:A 0.000345443
21 *1856:A 0.000102469
22 *1844:C 0.000306442
23 *1826:C 0.000153855
24 *1841:C 2.80853e-05
25 *1830:C 0
26 *1736:A 0
27 *1815:A 0.000393708
28 *3:332 5.6397e-05
29 *3:304 0.000233046
30 *3:298 0.000562697
31 *3:285 0.000724725
32 *3:274 0.000524823
33 *3:265 0.000244233
34 *3:250 0.000820487
35 *3:238 0.000155004
36 *3:226 0.000464472
37 *3:215 0.000357926
38 *3:213 0.000930539
39 *3:204 0.00063348
40 *3:191 0.000593458
41 *3:178 0.00091773
42 *3:167 0.000618765
43 *3:154 0.000407374
44 *3:122 0.000651104
45 *3:113 0.000264342
46 *3:109 0.000522271
47 *3:98 0.000713215
48 *3:80 0.000408911
49 *3:78 0.000337889
50 *3:67 0.000469038
51 *3:52 0.00227972
52 *3:41 0.00214133
53 *3:37 0.00131006
54 *3:26 0.00155718
55 *3:9 0.0037131
56 *3:7 0.00412204
57 *1740:B *272:12 0.000337406
58 *1740:B *334:29 0.000317737
59 *1815:A *1815:B 0
60 *1815:A *283:31 0
61 *1815:A *283:46 0
62 *1819:C *1819:B 4.77699e-05
63 *1819:C *310:49 0
64 *1823:C *1823:B 4.77425e-05
65 *1823:C *277:93 7.31538e-06
66 *1826:C *1841:A 0
67 *1826:C *1841:D 7.92265e-05
68 *1826:C *7:48 0
69 *1826:C *7:141 0
70 *1826:C *320:22 0
71 *1834:C *1834:B 4.77702e-05
72 *1834:C *1834:D 1.54008e-05
73 *1838:C *1838:B 1.54008e-05
74 *1838:C *1838:D 1.54008e-05
75 *1841:C *1841:D 1.54008e-05
76 *1844:C *1791:A 0
77 *1844:C *1844:D 0.000112541
78 *1844:C *255:16 0
79 *1844:C *320:22 0
80 *1844:C *326:10 0
81 *1845:C *1845:B 4.77425e-05
82 *1845:C *1845:D 1.54008e-05
83 *1845:C *5:133 1.54008e-05
84 *1845:C *310:41 0.000671646
85 *1856:A *1787:B 0
86 *1856:A *1856:C 7.99004e-05
87 *1857:A *298:50 0
88 *1857:A *321:10 0.000532405
89 *1860:C *269:81 0.00018387
90 *1860:C *310:41 0.000237686
91 *1865:A *1865:B 0.000112426
92 *1865:A *269:16 0
93 *1865:A *272:25 1.54008e-05
94 *1872:A *1852:C 8.00842e-05
95 *1872:A *280:55 4.77425e-05
96 *1872:A *324:12 0
97 *1873:A *1809:B 0.000176252
98 *3:7 output_o[5] 0
99 *3:9 *127:12 0
100 *3:26 *283:27 0.00055911
101 *3:26 *306:27 0.000112684
102 *3:37 *1837:C 0.000127262
103 *3:37 *4:9 0
104 *3:37 *6:64 0.000939169
105 *3:37 *6:66 0.00131809
106 *3:37 *6:70 0.000563017
107 *3:37 *255:18 0
108 *3:37 *267:58 0.0010468
109 *3:37 *291:10 0.000323667
110 *3:37 *291:12 0.000648708
111 *3:37 *291:14 0.000971667
112 *3:37 *306:27 0.000226215
113 *3:41 *1830:A_N 4.77425e-05
114 *3:52 *6:53 0
115 *3:52 *255:18 0
116 *3:52 *267:58 7.61961e-05
117 *3:52 *267:71 0.00133337
118 *3:52 *288:127 0.000345425
119 *3:52 *292:42 0.000130011
120 *3:67 *1841:D 6.46834e-05
121 *3:78 *6:25 0.000998116
122 *3:78 *6:27 2.24232e-05
123 *3:78 *267:80 0.000454387
124 *3:78 *267:91 0.000540261
125 *3:98 *6:25 0.00091993
126 *3:98 *267:91 0.000939942
127 *3:109 *6:25 0.00113577
128 *3:109 *267:91 0.00115487
129 *3:113 *1861:B 4.77425e-05
130 *3:113 *269:36 4.77425e-05
131 *3:122 *269:36 1.54008e-05
132 *3:122 *269:43 6.46834e-05
133 *3:122 *269:81 0.000226555
134 *3:154 *1838:B 0.000176369
135 *3:154 *6:25 0.000755032
136 *3:154 *222:8 0
137 *3:154 *267:91 0.000776391
138 *3:167 *7:42 0.000216411
139 *3:167 *7:48 0.000130012
140 *3:167 *281:23 0.00045472
141 *3:178 *6:25 0
142 *3:178 *275:47 0
143 *3:178 *281:23 0
144 *3:191 *6:25 0
145 *3:213 *6:25 0
146 *3:213 *7:32 0
147 *3:213 *275:47 0
148 *3:213 *275:65 0
149 *3:226 *309:12 0.000240377
150 *3:238 *1853:B 0
151 *3:238 *287:8 0.000127472
152 *3:238 *298:144 0.00012767
153 *3:238 *334:29 0.000181588
154 *3:250 *7:32 0
155 *3:250 *275:65 0
156 *3:265 *7:32 0
157 *3:265 *275:65 0
158 *3:274 *7:32 0
159 *3:285 *7:30 0
160 *3:285 *309:12 0
161 *3:285 *309:40 0
162 *3:298 *7:28 0
163 *3:298 *277:93 0
164 *3:298 *313:51 0
165 *3:304 *272:12 7.30101e-05
166 *3:304 *313:51 0
167 *3:304 *334:29 7.54955e-05
168 *3:332 *1869:B 4.77425e-05
169 *3:332 *272:12 0.000126354
170 *3:332 *311:16 0.000126354
171 *3:332 *332:10 4.77425e-05
*RES
1 ena_i *3:7 32.3806 
2 *3:7 *3:9 36.1942 
3 *3:9 *1815:A 43.1312 
4 *3:9 *3:26 24.1406 
5 *3:26 *1736:A 20 
6 *3:26 *3:37 40.5073 
7 *3:37 *3:41 20.3193 
8 *3:41 *1830:C 20 
9 *3:41 *3:52 39.2095 
10 *3:52 *1841:C 40.3193 
11 *3:52 *3:67 21.3493 
12 *3:67 *1826:C 21.1192 
13 *3:67 *3:78 24.5526 
14 *3:78 *3:80 20 
15 *3:80 *1844:C 23.0488 
16 *3:80 *1856:A 20.9682 
17 *3:78 *3:98 4.3054 
18 *3:98 *1857:A 43.5638 
19 *3:98 *3:109 5.2942 
20 *3:109 *3:113 20.5356 
21 *3:113 *1861:C 20 
22 *3:113 *3:122 22.266 
23 *3:122 *1845:C 45.3354 
24 *3:122 *1860:C 41.0918 
25 *3:109 *3:154 24.7483 
26 *3:154 *1838:C 20.3193 
27 *3:154 *3:167 22.3999 
28 *3:167 *1834:C 40.5356 
29 *3:167 *3:178 3.811 
30 *3:178 *1873:A 43.0488 
31 *3:178 *3:191 1.339 
32 *3:191 *1872:A 43.4814 
33 *3:191 *3:204 0.5974 
34 *3:204 *1852:A 40 
35 *3:204 *3:213 4.7998 
36 *3:213 *3:215 20 
37 *3:215 *1848:A 20.5613 
38 *3:215 *3:226 2.6986 
39 *3:226 *3:238 42.0806 
40 *3:238 *1853:A 20 
41 *3:226 *1849:A 20 
42 *3:213 *3:250 3.3166 
43 *3:250 *1865:A 43.6462 
44 *3:250 *3:265 0.5974 
45 *3:265 *1864:A 40 
46 *3:265 *3:274 1.5862 
47 *3:274 *1819:C 40.5356 
48 *3:274 *3:285 3.3166 
49 *3:285 *1868:A 40 
50 *3:285 *3:298 23.8213 
51 *3:298 *3:304 20.8858 
52 *3:304 *1823:C 40.3193 
53 *3:304 *1740:B 41.9055 
54 *3:298 *3:332 40.9167 
55 *3:332 *1869:A 20 
*END

*D_NET *4 0.0312325
*CONN
*P input_ni[0] I
*I *1767:A_N I *D sg13g2_nand3b_1
*I *1745:A I *D sg13g2_nor2b_1
*I *1860:A I *D sg13g2_and4_1
*I *1861:A I *D sg13g2_nand4_1
*I *1749:B_N I *D sg13g2_nor2b_1
*I *1738:A I *D sg13g2_nand3_1
*I *1845:A I *D sg13g2_nand4_1
*I *1791:A I *D sg13g2_nand3_1
*I *1844:A I *D sg13g2_and4_1
*I *1753:A I *D sg13g2_nor2_1
*I *1759:A I *D sg13g2_and4_1
*I *1754:A I *D sg13g2_nor4_1
*I *1760:A I *D sg13g2_nand4_1
*I *1758:A I *D sg13g2_nand3_1
*I *1771:C I *D sg13g2_nand3b_1
*CAP
1 input_ni[0] 0.00202294
2 *1767:A_N 0.00020214
3 *1745:A 0.000134458
4 *1860:A 0.000174889
5 *1861:A 7.14003e-05
6 *1749:B_N 2.56178e-05
7 *1738:A 3.32345e-05
8 *1845:A 7.93798e-05
9 *1791:A 0.00023612
10 *1844:A 4.2857e-05
11 *1753:A 0.000260744
12 *1759:A 3.31155e-05
13 *1754:A 0.000250154
14 *1760:A 3.32229e-05
15 *1758:A 0
16 *1771:C 4.79104e-05
17 *4:167 0.00036188
18 *4:156 0.000184077
19 *4:145 0.000189806
20 *4:134 0.000383287
21 *4:117 0.000648706
22 *4:106 0.000727036
23 *4:95 0.000665195
24 *4:80 0.00119578
25 *4:65 0.000668539
26 *4:54 0.000459657
27 *4:43 0.000378739
28 *4:32 0.000631669
29 *4:17 0.000543954
30 *4:9 0.0023806
31 *1738:A *1755:A 4.75525e-05
32 *1745:A *5:159 5.38157e-05
33 *1745:A *328:14 4.77425e-05
34 *1753:A *1753:B 0
35 *1754:A *1754:B 0.000305735
36 *1759:A *1759:B 1.54008e-05
37 *1760:A *1760:B 1.54008e-05
38 *1767:A_N *1767:C 0
39 *1767:A_N *5:39 0.000176939
40 *1767:A_N *6:64 0.000237686
41 *1767:A_N *313:6 0
42 *1767:A_N *313:45 0.000198687
43 *1771:C *1767:C 1.54008e-05
44 *1771:C *5:29 6.46834e-05
45 *1771:C *5:39 1.54008e-05
46 *1771:C *7:91 8.00842e-05
47 *1791:A *1791:B 0
48 *1791:A *255:16 0.000112045
49 *1845:A *1845:B 4.77425e-05
50 *1860:A *1860:B 0.000306639
51 *1860:A *269:43 4.77425e-05
52 *1860:A *269:81 0.00024184
53 *1861:A *1861:B 4.77425e-05
54 *1861:A *329:10 1.54008e-05
55 *4:9 *6:64 5.38157e-05
56 *4:9 *6:66 0.00129985
57 *4:9 *6:70 0.000565753
58 *4:9 *6:87 0.000340762
59 *4:9 *283:27 0
60 *4:9 *290:36 0
61 *4:9 *297:8 0
62 *4:9 *306:27 0
63 *4:17 *1767:C 8.00842e-05
64 *4:17 *1829:A 4.75166e-05
65 *4:17 *7:91 6.46834e-05
66 *4:17 *255:18 0.000130055
67 *4:17 *267:58 2.24232e-05
68 *4:17 *291:10 8.00842e-05
69 *4:32 *255:18 0.000345758
70 *4:32 *282:10 0
71 *4:32 *313:45 0
72 *4:43 *7:85 0.00137502
73 *4:43 *7:91 0.000183828
74 *4:43 *266:14 0.0015368
75 *4:54 *7:83 0.00018387
76 *4:54 *7:85 0.000107631
77 *4:54 *266:14 0.000291942
78 *4:65 *7:81 0.000127744
79 *4:65 *7:83 0.000753534
80 *4:65 *266:14 0.000884428
81 *4:80 *7:81 0.0011562
82 *4:80 *266:14 0.000235992
83 *4:80 *310:41 0.00153562
84 *4:95 *5:11 0.000577068
85 *4:95 *5:98 0.000292275
86 *4:95 *310:41 0.000387549
87 *4:106 *5:98 7.62389e-05
88 *4:106 *5:107 0.000377483
89 *4:117 *5:107 0.000130055
90 *4:117 *5:118 0.000703039
91 *4:134 *1755:A 3.23417e-05
92 *4:134 *1845:D 4.77425e-05
93 *4:134 *5:118 7.61961e-05
94 *4:134 *5:133 5.39663e-05
95 *4:134 *321:10 0
96 *4:145 *1755:A 0.00018387
97 *4:145 *5:137 0.000346091
98 *4:145 *269:47 0.000269852
99 *4:156 *5:137 0.00016207
100 *4:156 *5:146 0.000184492
101 *4:156 *269:47 0.000346423
102 *4:167 *5:146 5.38157e-05
103 *4:167 *5:159 0.00018387
104 *4:167 *269:47 0.00018387
105 *1844:C *1791:A 0
106 *3:37 *4:9 0
*RES
1 input_ni[0] *4:9 43.8857 
2 *4:9 *4:17 41.7819 
3 *4:17 *1771:C 40.5356 
4 *4:17 *4:32 23.4196 
5 *4:32 *1758:A 20 
6 *4:32 *4:43 27.3439 
7 *4:43 *1760:A 40.3193 
8 *4:43 *4:54 1.339 
9 *4:54 *1754:A 42.4823 
10 *4:54 *4:65 4.0582 
11 *4:65 *1759:A 40.3193 
12 *4:65 *4:80 8.6829 
13 *4:80 *1753:A 42.266 
14 *4:80 *4:95 5.9637 
15 *4:95 *1844:A 40.3193 
16 *4:95 *4:106 2.0806 
17 *4:106 *1791:A 42.0497 
18 *4:106 *4:117 3.811 
19 *4:117 *1845:A 40.7519 
20 *4:117 *4:134 22.5338 
21 *4:134 *1738:A 20.3193 
22 *4:134 *4:145 22.0806 
23 *4:145 *1749:B_N 40.3193 
24 *4:145 *4:156 1.5862 
25 *4:156 *1861:A 40.7519 
26 *4:156 *4:167 1.0918 
27 *4:167 *1860:A 42.0497 
28 *4:167 *1745:A 41.4111 
29 *4:9 *1767:A_N 42.6265 
*END

*D_NET *5 0.0231129
*CONN
*P input_ni[1] I
*I *1738:B I *D sg13g2_nand3_1
*I *1860:B I *D sg13g2_and4_1
*I *1745:B_N I *D sg13g2_nor2b_1
*I *1861:B I *D sg13g2_nand4_1
*I *1749:A I *D sg13g2_nor2b_1
*I *1845:B I *D sg13g2_nand4_1
*I *1791:B I *D sg13g2_nand3_1
*I *1844:B I *D sg13g2_and4_1
*I *1753:B I *D sg13g2_nor2_1
*I *1759:B I *D sg13g2_and4_1
*I *1754:B I *D sg13g2_nor4_1
*I *1760:B I *D sg13g2_nand4_1
*I *1758:B I *D sg13g2_nand3_1
*I *1771:A_N I *D sg13g2_nand3b_1
*I *1767:B I *D sg13g2_nand3b_1
*CAP
1 input_ni[1] 0.000723769
2 *1738:B 0
3 *1860:B 0.000223945
4 *1745:B_N 0
5 *1861:B 2.60565e-05
6 *1749:A 0
7 *1845:B 2.60565e-05
8 *1791:B 0.000243592
9 *1844:B 0
10 *1753:B 0.000214198
11 *1759:B 6.60911e-05
12 *1754:B 0.000187452
13 *1760:B 5.19107e-05
14 *1758:B 4.43025e-05
15 *1771:A_N 0
16 *1767:B 0
17 *5:159 0.00026714
18 *5:146 0.000109772
19 *5:137 0.000127213
20 *5:133 0.000385744
21 *5:118 0.000457956
22 *5:107 0.00046778
23 *5:98 0.000155329
24 *5:39 0.000234888
25 *5:29 0.000558519
26 *5:23 0.000907199
27 *5:21 0.000667052
28 *5:19 0.000635775
29 *5:13 0.00101732
30 *5:11 0.00126393
31 *5:5 0.00125871
32 *1753:B *7:81 0
33 *1754:B *1754:C 0.000112198
34 *1754:B *1760:D 8.00842e-05
35 *1759:B *6:37 1.54008e-05
36 *1760:B *1754:C 4.77425e-05
37 *1791:B *298:65 1.53556e-05
38 *1791:B *298:74 0.000225545
39 *1860:B *328:14 0
40 *5:13 *7:81 0.00137101
41 *5:13 *283:10 5.28594e-05
42 *5:13 *292:32 0
43 *5:19 *6:45 0.000386299
44 *5:19 *7:83 0.000251846
45 *5:19 *283:10 0.0001816
46 *5:21 *7:83 0.000107631
47 *5:21 *7:85 7.62389e-05
48 *5:23 *7:85 0.00140645
49 *5:23 *7:91 7.61961e-05
50 *5:29 *7:91 0.000399574
51 *5:29 *313:45 0.000305966
52 *5:39 *1767:C 0.000223355
53 *5:39 *1829:A 8.01392e-05
54 *5:39 *313:45 4.77425e-05
55 *5:98 *310:41 0.000346091
56 *5:107 *310:41 0.000508203
57 *5:118 *310:41 0.000779277
58 *5:133 *1738:C 8.00842e-05
59 *5:133 *1845:D 0.000112541
60 *5:133 *310:41 0.00018387
61 *5:137 *267:91 0.000509897
62 *5:146 *267:91 0.000215746
63 *5:159 *267:91 0.00021522
64 *1745:A *5:159 5.38157e-05
65 *1753:A *1753:B 0
66 *1754:A *1754:B 0.000305735
67 *1759:A *1759:B 1.54008e-05
68 *1760:A *1760:B 1.54008e-05
69 *1767:A_N *5:39 0.000176939
70 *1771:C *5:29 6.46834e-05
71 *1771:C *5:39 1.54008e-05
72 *1791:A *1791:B 0
73 *1845:C *1845:B 4.77425e-05
74 *1845:C *5:133 1.54008e-05
75 *1845:A *1845:B 4.77425e-05
76 *1860:A *1860:B 0.000306639
77 *1861:A *1861:B 4.77425e-05
78 *3:113 *1861:B 4.77425e-05
79 *4:95 *5:11 0.000577068
80 *4:95 *5:98 0.000292275
81 *4:106 *5:98 7.62389e-05
82 *4:106 *5:107 0.000377483
83 *4:117 *5:107 0.000130055
84 *4:117 *5:118 0.000703039
85 *4:134 *5:118 7.61961e-05
86 *4:134 *5:133 5.39663e-05
87 *4:145 *5:137 0.000346091
88 *4:156 *5:137 0.00016207
89 *4:156 *5:146 0.000184492
90 *4:167 *5:146 5.38157e-05
91 *4:167 *5:159 0.00018387
*RES
1 input_ni[1] *5:5 7.622 
2 *5:5 *5:11 25.3354 
3 *5:11 *5:13 8.0134 
4 *5:13 *5:19 4.4805 
5 *5:19 *5:21 0.8446 
6 *5:21 *5:23 6.7774 
7 *5:23 *5:29 23.8831 
8 *5:29 *5:39 42.5338 
9 *5:39 *1767:B 20 
10 *5:29 *1771:A_N 20 
11 *5:23 *1758:B 40.3193 
12 *5:21 *1760:B 40.5356 
13 *5:19 *1754:B 42.0497 
14 *5:13 *1759:B 40.5356 
15 *5:11 *1753:B 41.8334 
16 *5:5 *5:98 21.5862 
17 *5:98 *1844:B 40 
18 *5:98 *5:107 2.3278 
19 *5:107 *1791:B 42.266 
20 *5:107 *5:118 3.5638 
21 *5:118 *1845:B 40.3193 
22 *5:118 *5:133 23.1106 
23 *5:133 *5:137 22.3278 
24 *5:137 *1749:A 40 
25 *5:137 *5:146 1.0918 
26 *5:146 *1861:B 40.3193 
27 *5:146 *5:159 21.0918 
28 *5:159 *1745:B_N 20 
29 *5:159 *1860:B 22.266 
30 *5:133 *1738:B 20 
*END

*D_NET *6 0.0377784
*CONN
*P input_ni[2] I
*I *1823:B I *D sg13g2_nand4_1
*I *1737:B I *D sg13g2_nor2_1
*I *1819:B I *D sg13g2_nand4_1
*I *1790:B_N I *D sg13g2_nor2b_1
*I *1826:B I *D sg13g2_nand4_1
*I *1775:B I *D sg13g2_nand3_1
*I *1759:D I *D sg13g2_and4_1
*I *1760:D I *D sg13g2_nand4_1
*I *1754:D I *D sg13g2_nor4_1
*I *1829:A I *D sg13g2_nor3_1
*I *1735:A I *D sg13g2_inv_1
*I *1784:A I *D sg13g2_nor2_1
*I *1833:A I *D sg13g2_nor3_1
*I *1837:A I *D sg13g2_nor3_1
*I *1781:A I *D sg13g2_nor2_1
*I *1778:A I *D sg13g2_nor2_1
*CAP
1 input_ni[2] 0.00105909
2 *1823:B 0.000577816
3 *1737:B 8.65261e-05
4 *1819:B 0.000244029
5 *1790:B_N 0
6 *1826:B 0.000110785
7 *1775:B 0.000130987
8 *1759:D 3.21358e-05
9 *1760:D 6.63636e-05
10 *1754:D 0.000152115
11 *1829:A 0.000401274
12 *1735:A 4.51338e-05
13 *1784:A 3.80729e-05
14 *1833:A 0.000275934
15 *1837:A 0.00015655
16 *1781:A 0.000532133
17 *1778:A 0.000404114
18 *6:87 0.000558418
19 *6:72 0.000709088
20 *6:70 0.000184508
21 *6:66 0.000368537
22 *6:64 0.000917289
23 *6:53 0.00153822
24 *6:47 0.00106755
25 *6:45 0.000527649
26 *6:37 0.00158357
27 *6:27 0.0015834
28 *6:25 0.00275655
29 *6:19 0.0033217
30 *6:13 0.00151541
31 *6:11 0.000657374
32 *6:9 0.00190521
33 *1737:B *310:49 0
34 *1737:B *314:44 0.000144771
35 *1754:D *1754:C 0.000181603
36 *1754:D *280:8 0
37 *1754:D *284:10 0
38 *1760:D *1754:C 0.000112426
39 *1775:B *1775:C 0.000144814
40 *1775:B *7:81 0
41 *1778:A *274:16 0
42 *1778:A *274:26 0
43 *1778:A *282:14 0
44 *1778:A *294:6 8.00842e-05
45 *1778:A *294:38 0.000175693
46 *1781:A *1781:B 0
47 *1781:A *296:8 0.000337195
48 *1819:B *1819:A 0.000209614
49 *1819:B *310:49 0
50 *1823:B *1823:A 1.54008e-05
51 *1823:B *1868:C 0
52 *1823:B *7:13 0
53 *1823:B *311:16 4.77425e-05
54 *1823:B *311:38 0.000192634
55 *1823:B *314:44 0
56 *1826:B *279:25 7.61954e-05
57 *1829:A *1822:B 0
58 *1829:A *1829:B 0
59 *1829:A *289:10 0.000240377
60 *1829:A *310:12 0
61 *1829:A *313:45 0
62 *1833:A *1837:B 0.000290312
63 *1833:A *268:25 0.000111567
64 *1833:A *297:12 0.000240377
65 *1837:A *1837:B 0
66 *6:9 *7:9 0.000506681
67 *6:9 *7:28 0
68 *6:9 *328:25 0
69 *6:11 *7:28 0
70 *6:11 *328:25 0
71 *6:13 *7:30 0
72 *6:19 *7:32 0
73 *6:19 *306:33 0
74 *6:19 *328:25 0
75 *6:25 *1856:C 0.00039983
76 *6:25 *7:38 0
77 *6:25 *298:10 0
78 *6:25 *298:50 0.000184219
79 *6:25 *306:33 0
80 *6:27 *1775:C 0.000238608
81 *6:27 *1841:D 7.62452e-05
82 *6:27 *279:21 0.000346014
83 *6:37 *267:71 0
84 *6:37 *281:14 0
85 *6:37 *283:14 0
86 *6:45 *292:32 0
87 *6:53 *282:10 0
88 *6:53 *314:38 0
89 *6:72 *296:8 6.41265e-05
90 *6:87 *297:8 0
91 *1754:B *1760:D 8.00842e-05
92 *1759:B *6:37 1.54008e-05
93 *1767:A_N *6:64 0.000237686
94 *1819:C *1819:B 4.77699e-05
95 *1823:C *1823:B 4.77425e-05
96 *3:37 *6:64 0.000939169
97 *3:37 *6:66 0.00131809
98 *3:37 *6:70 0.000563017
99 *3:52 *6:53 0
100 *3:78 *6:25 0.000998116
101 *3:78 *6:27 2.24232e-05
102 *3:98 *6:25 0.00091993
103 *3:109 *6:25 0.00113577
104 *3:154 *6:25 0.000755032
105 *3:178 *6:25 0
106 *3:191 *6:25 0
107 *3:213 *6:25 0
108 *4:9 *6:64 5.38157e-05
109 *4:9 *6:66 0.00129985
110 *4:9 *6:70 0.000565753
111 *4:9 *6:87 0.000340762
112 *4:17 *1829:A 4.75166e-05
113 *5:19 *6:45 0.000386299
114 *5:39 *1829:A 8.01392e-05
*RES
1 input_ni[2] *6:9 31.742 
2 *6:9 *6:11 2.3278 
3 *6:11 *6:13 2.575 
4 *6:13 *6:19 28.7344 
5 *6:19 *6:25 48.0469 
6 *6:25 *6:27 3.3166 
7 *6:27 *6:37 30.4236 
8 *6:37 *6:45 24.4496 
9 *6:45 *6:47 0.5974 
10 *6:47 *6:53 27.3439 
11 *6:53 *1778:A 23.5638 
12 *6:53 *6:64 24.3054 
13 *6:64 *6:66 6.0358 
14 *6:66 *6:70 22.575 
15 *6:70 *6:72 0.5356 
16 *6:72 *1781:A 25.2118 
17 *6:72 *6:87 41.5862 
18 *6:87 *1837:A 21.3184 
19 *6:87 *1833:A 23.1312 
20 *6:70 *1784:A 20.5356 
21 *6:66 *1735:A 40.5356 
22 *6:64 *1829:A 44.017 
23 *6:47 *1754:D 41.6377 
24 *6:45 *1760:D 40.7519 
25 *6:37 *1759:D 20.3193 
26 *6:27 *1775:B 41.1845 
27 *6:25 *1826:B 41.3184 
28 *6:19 *1790:B_N 20 
29 *6:13 *1819:B 42.4823 
30 *6:11 *1737:B 40.9682 
31 *6:9 *1823:B 45.5311 
*END

*D_NET *7 0.0361801
*CONN
*P input_ni[3] I
*I *1737:A I *D sg13g2_nor2_1
*I *1819:A I *D sg13g2_nand4_1
*I *1790:A I *D sg13g2_nor2b_1
*I *1834:A I *D sg13g2_nand4_1
*I *1838:A I *D sg13g2_nand4_1
*I *1787:A I *D sg13g2_nand3_1
*I *1826:A I *D sg13g2_nand4_1
*I *1841:A I *D sg13g2_nand4_1
*I *1759:C I *D sg13g2_and4_1
*I *1760:C I *D sg13g2_nand4_1
*I *1754:C I *D sg13g2_nor4_1
*I *1758:C I *D sg13g2_nand3_1
*I *1771:B I *D sg13g2_nand3b_1
*I *1767:C I *D sg13g2_nand3b_1
*I *1775:A I *D sg13g2_nand3_1
*I *1823:A I *D sg13g2_nand4_1
*CAP
1 input_ni[3] 0.000791528
2 *1737:A 0
3 *1819:A 0.000112212
4 *1790:A 0
5 *1834:A 0
6 *1838:A 0
7 *1787:A 0
8 *1826:A 3.16352e-05
9 *1841:A 0.000127018
10 *1759:C 0
11 *1760:C 0
12 *1754:C 0.000224648
13 *1758:C 0
14 *1771:B 0
15 *1767:C 0.000222986
16 *1775:A 0
17 *1823:A 0.000512791
18 *7:141 0.000206238
19 *7:116 0.000224648
20 *7:91 0.000658592
21 *7:85 0.000685773
22 *7:83 0.000541726
23 *7:81 0.00105238
24 *7:66 0.000968381
25 *7:60 0.000460598
26 *7:48 0.00220799
27 *7:42 0.00207743
28 *7:38 0.00107073
29 *7:32 0.00169236
30 *7:30 0.000978729
31 *7:28 0.000508447
32 *7:13 0.000928138
33 *7:9 0.00354574
34 *7:7 0.00426037
35 *1754:C *280:8 0
36 *1819:A *310:49 0.000209614
37 *1823:A *1764:A_N 0
38 *1823:A *311:16 4.77425e-05
39 *1823:A *311:38 0.000208035
40 *1841:A *319:8 0.000143571
41 *7:9 *328:25 0
42 *7:9 *328:48 0
43 *7:28 *314:63 0
44 *7:38 *1834:B 0.000252608
45 *7:38 *1838:B 0
46 *7:38 *222:8 0
47 *7:38 *328:25 0
48 *7:48 *320:22 8.00842e-05
49 *7:60 *281:14 0.00045472
50 *7:60 *297:8 0.000449015
51 *7:60 *320:22 0
52 *7:66 *281:14 0.000671162
53 *7:81 output_no[34] 0
54 *7:91 *310:33 0
55 *7:141 *319:8 0
56 *1753:B *7:81 0
57 *1754:B *1754:C 0.000112198
58 *1754:D *1754:C 0.000181603
59 *1760:B *1754:C 4.77425e-05
60 *1760:D *1754:C 0.000112426
61 *1767:A_N *1767:C 0
62 *1771:C *1767:C 1.54008e-05
63 *1771:C *7:91 8.00842e-05
64 *1775:B *7:81 0
65 *1819:B *1819:A 0.000209614
66 *1823:B *1823:A 1.54008e-05
67 *1823:B *7:13 0
68 *1826:C *1841:A 0
69 *1826:C *7:48 0
70 *1826:C *7:141 0
71 *3:167 *7:42 0.000216411
72 *3:167 *7:48 0.000130012
73 *3:213 *7:32 0
74 *3:250 *7:32 0
75 *3:265 *7:32 0
76 *3:274 *7:32 0
77 *3:285 *7:30 0
78 *3:298 *7:28 0
79 *4:17 *1767:C 8.00842e-05
80 *4:17 *7:91 6.46834e-05
81 *4:43 *7:85 0.00137502
82 *4:43 *7:91 0.000183828
83 *4:54 *7:83 0.00018387
84 *4:54 *7:85 0.000107631
85 *4:65 *7:81 0.000127744
86 *4:65 *7:83 0.000753534
87 *4:80 *7:81 0.0011562
88 *5:13 *7:81 0.00137101
89 *5:19 *7:83 0.000251846
90 *5:21 *7:83 0.000107631
91 *5:21 *7:85 7.62389e-05
92 *5:23 *7:85 0.00140645
93 *5:23 *7:91 7.61961e-05
94 *5:29 *7:91 0.000399574
95 *5:39 *1767:C 0.000223355
96 *6:9 *7:9 0.000506681
97 *6:9 *7:28 0
98 *6:11 *7:28 0
99 *6:13 *7:30 0
100 *6:19 *7:32 0
101 *6:25 *7:38 0
*RES
1 input_ni[3] *7:7 29.1361 
2 *7:7 *7:9 42.127 
3 *7:9 *7:13 20.7519 
4 *7:13 *1823:A 24.8822 
5 *7:13 *7:28 23.3166 
6 *7:28 *7:30 1.8334 
7 *7:30 *7:32 7.2718 
8 *7:32 *7:38 30.6502 
9 *7:38 *7:42 21.0918 
10 *7:42 *7:48 36.9538 
11 *7:48 *7:60 43.502 
12 *7:60 *7:66 43.0694 
13 *7:66 *1775:A 20 
14 *7:66 *7:81 30.9798 
15 *7:81 *7:83 4.3054 
16 *7:83 *7:85 6.7774 
17 *7:85 *7:91 24.841 
18 *7:91 *1767:C 22.2866 
19 *7:91 *1771:B 20 
20 *7:85 *1758:C 40 
21 *7:83 *7:116 20 
22 *7:116 *1754:C 22.5029 
23 *7:116 *1760:C 20 
24 *7:81 *1759:C 40 
25 *7:60 *7:141 0.5356 
26 *7:141 *1841:A 21.3184 
27 *7:141 *1826:A 20.3502 
28 *7:48 *1787:A 20 
29 *7:42 *1838:A 40 
30 *7:38 *1834:A 20 
31 *7:32 *1790:A 40 
32 *7:30 *1819:A 41.4008 
33 *7:28 *1737:A 40 
*END

*D_NET *8 0.0453069
*CONN
*P input_ni[4] I
*I *1979:B I *D sg13g2_nor3_1
*I *1876:A I *D sg13g2_nand2_1
*I *1762:B I *D sg13g2_nand2b_1
*I *1739:A_N I *D sg13g2_nand2b_1
*I *2014:B I *D sg13g2_nand3_1
*I *2013:B I *D sg13g2_and3_1
*I *1761:B_N I *D sg13g2_nor2b_1
*I *1811:A I *D sg13g2_nor2_1
*CAP
1 input_ni[4] 0.00142522
2 *1979:B 7.98457e-05
3 *1876:A 0.000124319
4 *1762:B 3.34444e-05
5 *1739:A_N 2.60565e-05
6 *2014:B 0.000141305
7 *2013:B 0.00022742
8 *1761:B_N 0
9 *1811:A 0.000148741
10 *8:112 0.00335771
11 *8:61 0.000391752
12 *8:59 0.000158254
13 *8:57 0.000165642
14 *8:53 0.000216547
15 *8:36 0.000600906
16 *8:21 0.00305169
17 *8:13 0.0053016
18 *8:7 0.0073848
19 *1739:A_N *1739:B 4.77425e-05
20 *1739:A_N *327:43 4.77425e-05
21 *1762:B *1762:A_N 4.77425e-05
22 *1811:A *1811:B 0
23 *1979:B *1979:C 0.000112198
24 *2013:B *10:92 0.000175693
25 *2013:B *285:12 0.000288087
26 *2013:B *334:29 0.000288087
27 *2014:B *1739:B 6.46834e-05
28 *2014:B *9:31 0.000175693
29 *2014:B *271:6 4.77425e-05
30 *8:7 *319:120 0
31 *8:13 *9:11 0
32 *8:13 *306:87 0.000663092
33 *8:13 *342:14 0.00664105
34 *8:21 *9:13 0.00359227
35 *8:21 *9:17 0.00012816
36 *8:21 *334:29 0.000557987
37 *8:21 *342:12 2.22695e-05
38 *8:21 *342:14 0
39 *8:36 *1946:B 0.000288087
40 *8:36 *9:17 0
41 *8:36 *327:45 0.000982896
42 *8:53 *1761:A 4.77425e-05
43 *8:53 *1762:A_N 4.77425e-05
44 *8:53 *1863:B 8.00842e-05
45 *8:53 *9:23 0
46 *8:53 *320:62 0.000181608
47 *8:53 *327:45 0.000181608
48 *8:53 *331:27 8.00842e-05
49 *8:57 *285:12 0.00012816
50 *8:57 *334:29 0.000106064
51 *8:59 *285:12 0.000607938
52 *8:59 *334:29 0.000586257
53 *8:61 *285:12 0.00012816
54 *8:61 *334:29 0.000106064
55 *8:112 *9:11 0
56 *8:112 *10:28 0
57 *8:112 *153:10 0
58 *8:112 *157:10 0.0014084
59 *8:112 *159:8 0.000661385
60 *8:112 *342:14 0.00394918
61 *8:112 *344:10 0
*RES
1 input_ni[4] *8:7 34.7599 
2 *8:7 *8:13 35.8749 
3 *8:13 *8:21 46.2341 
4 *8:21 *1811:A 21.1845 
5 *8:21 *8:36 45.3045 
6 *8:36 *1761:B_N 20 
7 *8:36 *8:53 42.4823 
8 *8:53 *8:57 20.5974 
9 *8:57 *8:59 2.8222 
10 *8:59 *8:61 0.5974 
11 *8:61 *2013:B 43.3063 
12 *8:61 *2014:B 41.6171 
13 *8:59 *1739:A_N 40.3193 
14 *8:57 *1762:B 40.3193 
15 *8:13 *1876:A 40.9682 
16 *8:7 *8:112 36.9358 
17 *8:112 *1979:B 40.7519 
*END

*D_NET *9 0.0461372
*CONN
*P input_ni[5] I
*I *1979:C I *D sg13g2_nor3_1
*I *1876:B I *D sg13g2_nand2_1
*I *1811:B I *D sg13g2_nor2_1
*I *1761:A I *D sg13g2_nor2b_1
*I *1762:A_N I *D sg13g2_nand2b_1
*I *1739:B I *D sg13g2_nand2b_1
*I *2014:C I *D sg13g2_nand3_1
*I *2013:C I *D sg13g2_and3_1
*CAP
1 input_ni[5] 0.00163139
2 *1979:C 0.000176174
3 *1876:B 0.000174656
4 *1811:B 0.000182033
5 *1761:A 5.08969e-05
6 *1762:A_N 6.50535e-05
7 *1739:B 7.28998e-05
8 *2014:C 0
9 *2013:C 0
10 *9:37 8.14709e-05
11 *9:31 0.000208694
12 *9:29 0.000328716
13 *9:23 0.000294892
14 *9:17 0.000664532
15 *9:13 0.00236411
16 *9:11 0.0079287
17 *9:9 0.00789192
18 *1811:B *1812:A 0
19 *1811:B *1812:B 0
20 *9:9 *157:10 0
21 *9:9 *162:8 0
22 *9:9 *308:90 0
23 *9:9 *323:75 0
24 *9:11 *10:28 0.00421171
25 *9:11 *157:10 0
26 *9:11 *306:87 0
27 *9:11 *307:89 0.000182093
28 *9:11 *308:90 0
29 *9:11 *309:57 0
30 *9:11 *309:68 0
31 *9:11 *311:57 0.00108983
32 *9:11 *321:75 0.00760392
33 *9:13 *309:57 0
34 *9:13 *311:57 0.00332808
35 *9:13 *327:45 0
36 *9:17 *1946:B 0.000394151
37 *9:17 *334:29 0.000609356
38 *9:23 *331:27 0
39 *9:29 *329:25 0.000720992
40 *9:29 *334:29 0.000719869
41 *9:37 *330:31 0.000447269
42 *9:37 *333:18 0.000449845
43 *1739:A_N *1739:B 4.77425e-05
44 *1762:B *1762:A_N 4.77425e-05
45 *1811:A *1811:B 0
46 *1979:B *1979:C 0.000112198
47 *2014:B *1739:B 6.46834e-05
48 *2014:B *9:31 0.000175693
49 *8:13 *9:11 0
50 *8:21 *9:13 0.00359227
51 *8:21 *9:17 0.00012816
52 *8:36 *9:17 0
53 *8:53 *1761:A 4.77425e-05
54 *8:53 *1762:A_N 4.77425e-05
55 *8:53 *9:23 0
56 *8:112 *9:11 0
*RES
1 input_ni[5] *9:9 36.106 
2 *9:9 *9:11 73.027 
3 *9:11 *9:13 24.823 
4 *9:13 *9:17 25.7886 
5 *9:17 *9:23 1.0197 
6 *9:23 *9:29 43.3166 
7 *9:29 *9:31 1.1845 
8 *9:31 *9:37 42.0806 
9 *9:37 *2013:C 20 
10 *9:31 *2014:C 20 
11 *9:29 *1739:B 20.7519 
12 *9:23 *1762:A_N 20.7519 
13 *9:17 *1761:A 20.5356 
14 *9:13 *1811:B 41.4008 
15 *9:11 *1876:B 41.4008 
16 *9:9 *1979:C 41.4008 
*END

*D_NET *10 0.0561239
*CONN
*P input_ni[6] I
*I *1945:A I *D sg13g2_nor2_1
*I *1912:A I *D sg13g2_or2_1
*I *1911:A I *D sg13g2_nor2_1
*I *1877:A I *D sg13g2_nor2_1
*I *1878:A I *D sg13g2_or2_1
*I *1980:A_N I *D sg13g2_nand2b_1
*I *1812:A I *D sg13g2_and2_1
*I *1813:A I *D sg13g2_nand2_1
*I *2014:A I *D sg13g2_nand3_1
*I *1740:A I *D sg13g2_nand2_1
*I *2013:A I *D sg13g2_and3_1
*I *1946:A_N I *D sg13g2_nand2b_1
*I *1979:A I *D sg13g2_nor3_1
*CAP
1 input_ni[6] 0.000830313
2 *1945:A 0
3 *1912:A 6.77519e-05
4 *1911:A 3.03288e-05
5 *1877:A 0
6 *1878:A 0
7 *1980:A_N 2.5955e-05
8 *1812:A 6.64362e-05
9 *1813:A 0.000361334
10 *2014:A 6.34193e-05
11 *1740:A 0
12 *2013:A 0
13 *1946:A_N 0
14 *1979:A 0.000131073
15 *10:110 0.00042777
16 *10:92 0.000879399
17 *10:79 0.000924142
18 *10:75 0.000583494
19 *10:64 0.000962468
20 *10:58 0.000561666
21 *10:56 0.00269815
22 *10:50 0.00269116
23 *10:48 0.00149487
24 *10:44 0.00159361
25 *10:42 0.00335645
26 *10:36 0.00318038
27 *10:32 0.00019669
28 *10:28 0.00151305
29 *10:17 0.00285215
30 *10:13 0.00388236
31 *10:11 0.00336154
32 *1812:A *1812:B 3.22965e-05
33 *1812:A *334:33 0
34 *1813:A *1812:B 4.77425e-05
35 *1813:A *1813:B 0.000272528
36 *1813:A *1875:B 0
37 *1813:A *226:12 0
38 *1813:A *304:12 1.54008e-05
39 *1911:A *1913:A 4.77425e-05
40 *1912:A *1912:B 3.29538e-05
41 *1979:A *321:83 0.000175693
42 *1980:A_N *1980:B 4.76973e-05
43 *1980:A_N *334:33 4.76973e-05
44 *10:17 *319:142 0
45 *10:17 *320:92 0
46 *10:17 *321:83 6.46834e-05
47 *10:28 *157:10 0.00131158
48 *10:32 *1945:B 0
49 *10:36 *341:14 4.77425e-05
50 *10:42 *311:73 0.000774582
51 *10:42 *316:72 0.00487824
52 *10:42 *324:48 0
53 *10:42 *324:63 0
54 *10:42 *344:10 0
55 *10:44 *311:73 0.000213443
56 *10:44 *344:10 0
57 *10:48 *311:73 0.00279584
58 *10:48 *334:48 0
59 *10:48 *344:10 0
60 *10:50 *1877:B 0
61 *10:50 *334:48 0
62 *10:50 *344:10 0.000288675
63 *10:56 *1877:B 0
64 *10:56 *1980:B 5.30319e-05
65 *10:56 *330:44 0
66 *10:56 *334:48 0
67 *10:56 *336:8 0
68 *10:56 *342:12 0
69 *10:56 *344:10 0.00211508
70 *10:58 *1980:B 0.000212543
71 *10:58 *342:12 0
72 *10:64 *1863:B 0
73 *10:64 *1946:B 1.54008e-05
74 *10:64 *1980:B 7.51285e-05
75 *10:64 *303:8 0.000235556
76 *10:64 *330:31 0
77 *10:64 *330:44 0
78 *10:64 *333:18 0.000446263
79 *10:64 *342:12 0
80 *10:75 *1858:B 0.000213286
81 *10:75 *1946:B 8.00842e-05
82 *10:75 *327:37 0.000287758
83 *10:75 *329:25 0
84 *10:75 *329:44 0
85 *10:75 *330:31 0.00133078
86 *10:79 *327:37 0.00023464
87 *10:79 *330:31 0.000234726
88 *10:92 *1764:A_N 0.000142536
89 *10:92 *271:14 0.000395113
90 *10:92 *272:12 4.86123e-05
91 *10:92 *285:12 0.00178548
92 *10:92 *286:10 0
93 *10:92 *334:29 0
94 *1811:B *1812:A 0
95 *2013:B *10:92 0.000175693
96 *8:112 *10:28 0
97 *9:11 *10:28 0.00421171
*RES
1 input_ni[6] *10:11 30.7944 
2 *10:11 *10:13 33.2587 
3 *10:13 *10:17 34.3788 
4 *10:17 *1979:A 21.1845 
5 *10:17 *10:28 39.3846 
6 *10:28 *10:32 21.1845 
7 *10:32 *10:36 20.5356 
8 *10:36 *10:42 34.1445 
9 *10:42 *10:44 1.5862 
10 *10:44 *10:48 15.5015 
11 *10:48 *10:50 1.339 
12 *10:50 *10:56 24.5037 
13 *10:56 *10:58 1.0918 
14 *10:58 *10:64 25.6135 
15 *10:64 *1946:A_N 20 
16 *10:64 *10:75 26.8186 
17 *10:75 *10:79 21.0918 
18 *10:79 *2013:A 20 
19 *10:79 *10:92 30.9386 
20 *10:92 *1740:A 40 
21 *10:75 *2014:A 40.5356 
22 *10:58 *10:110 20 
23 *10:110 *1813:A 23.8625 
24 *10:110 *1812:A 20.7519 
25 *10:56 *1980:A_N 40.3193 
26 *10:50 *1878:A 40 
27 *10:48 *1877:A 40 
28 *10:44 *1911:A 40.3193 
29 *10:42 *1912:A 40.6725 
30 *10:32 *1945:A 20 
*END

*D_NET *11 0.0111926
*CONN
*P output_no[0] O
*I *2016:Y O *D sg13g2_nand2_1
*CAP
1 output_no[0] 2.05766e-05
2 *2016:Y 0.000117599
3 *11:20 0.00213802
4 *11:8 0.00223504
5 output_no[0] output_o[0] 4.01846e-05
6 *11:8 *345:80 4.77425e-05
7 *11:20 output_o[0] 0
8 *11:20 output_o[1] 0
9 *11:20 *2021:B 0
10 *11:20 *50:16 0
11 *11:20 *139:10 0.00577512
12 *11:20 *200:8 0
13 *11:20 *346:70 0.000818318
14 *11:20 *346:76 0
15 *11:20 *346:80 0
*RES
1 *2016:Y *11:8 40.9682 
2 *11:8 *11:20 49.703 
3 *11:20 output_no[0] 0.2678 
*END

*D_NET *12 0.000919111
*CONN
*P output_no[100] O
*I *1956:Y O *D sg13g2_nand2_1
*CAP
1 output_no[100] 0.00034393
2 *1956:Y 0.00034393
3 output_no[100] output_no[101] 0
4 output_no[100] output_no[99] 0
5 output_no[100] output_o[100] 4.01572e-05
6 output_no[100] output_o[101] 0
7 output_no[100] *1956:A 1.54008e-05
8 output_no[100] *1956:B 0.000175693
*RES
1 *1956:Y output_no[100] 24.017 
*END

*D_NET *13 0.00112862
*CONN
*P output_no[101] O
*I *1958:Y O *D sg13g2_nand2_1
*CAP
1 output_no[101] 0.000400601
2 *1958:Y 0.000400601
3 output_no[101] output_o[101] 4.01572e-05
4 output_no[101] output_o[102] 0
5 output_no[101] *315:102 0.000111568
6 output_no[101] *341:74 0.000175693
7 output_no[100] output_no[101] 0
*RES
1 *1958:Y output_no[101] 24.7586 
*END

*D_NET *14 0.00150867
*CONN
*P output_no[102] O
*I *1960:Y O *D sg13g2_nand2_1
*CAP
1 output_no[102] 0.000501849
2 *1960:Y 0.000501849
3 output_no[102] output_o[102] 0.000169334
4 output_no[102] output_o[103] 0
5 output_no[102] *142:10 0.000143351
6 output_no[102] *158:8 0
7 output_no[102] *341:74 0.0001122
8 output_no[102] *341:89 8.00842e-05
*RES
1 *1960:Y output_no[102] 24.9646 
*END

*D_NET *15 0.000978033
*CONN
*P output_no[103] O
*I *1962:Y O *D sg13g2_nand2b_1
*CAP
1 output_no[103] 0.000188116
2 *1962:Y 0.000188116
3 output_no[103] output_o[103] 0.000329435
4 output_no[103] output_o[104] 0
5 output_no[103] *332:89 0.000272365
*RES
1 *1962:Y output_no[103] 22.2145 
*END

*D_NET *16 0.0008664
*CONN
*P output_no[104] O
*I *1964:Y O *D sg13g2_nand2_1
*CAP
1 output_no[104] 0.000325333
2 *1964:Y 0.000325333
3 output_no[104] output_o[104] 4.00421e-05
4 output_no[104] output_o[105] 0
5 output_no[104] *341:111 0.000175693
*RES
1 *1964:Y output_no[104] 23.7698 
*END

*D_NET *17 0.00150671
*CONN
*P output_no[105] O
*I *1966:Y O *D sg13g2_nand2_1
*CAP
1 output_no[105] 0.000509288
2 *1966:Y 0.000509288
3 output_no[105] output_o[105] 0.000169219
4 output_no[105] output_o[106] 0
5 output_no[105] *320:107 8.00842e-05
6 output_no[105] *322:77 0.00011101
7 output_no[105] *344:100 8.00842e-05
8 output_no[105] *344:115 4.77425e-05
*RES
1 *1966:Y output_no[105] 24.9646 
*END

*D_NET *18 0.00153387
*CONN
*P output_no[106] O
*I *1968:Y O *D sg13g2_nand2_1
*CAP
1 output_no[106] 0.000570513
2 *1968:Y 0.000570513
3 output_no[106] output_o[106] 4.00421e-05
4 output_no[106] *327:109 0
5 output_no[106] *341:138 0
6 output_no[106] *344:115 4.77425e-05
7 output_no[106] *344:125 0.00030506
*RES
1 *1968:Y output_no[106] 26.0096 
*END

*D_NET *19 0.00165814
*CONN
*P output_no[107] O
*I *1970:Y O *D sg13g2_nand2_1
*CAP
1 output_no[107] 8.63653e-05
2 *1970:Y 0.00030854
3 *19:10 0.000394905
4 output_no[107] output_o[107] 0.000137067
5 *19:10 output_o[108] 0.000208035
6 *19:10 *335:82 0
7 *19:10 *341:162 0.000288174
8 *19:10 *344:125 0.000235055
9 *19:10 *344:137 0
*RES
1 *1970:Y *19:10 43.4505 
2 *19:10 output_no[107] 20.9167 
*END

*D_NET *20 0.00102267
*CONN
*P output_no[108] O
*I *1972:Y O *D sg13g2_nand2_1
*CAP
1 output_no[108] 0.00043553
2 *1972:Y 0.00043553
3 output_no[108] output_o[108] 4.00421e-05
4 output_no[108] output_o[109] 0
5 output_no[108] *1971:A 0
6 output_no[108] *1972:A 0.000111568
*RES
1 *1972:Y output_no[108] 24.7586 
*END

*D_NET *21 0.00206127
*CONN
*P output_no[109] O
*I *1974:Y O *D sg13g2_nand2_1
*CAP
1 output_no[109] 0.000103936
2 *1974:Y 0.000252173
3 *21:10 0.00035611
4 output_no[109] output_o[109] 0.000169524
5 output_no[109] output_o[110] 0
6 *21:10 output_o[110] 0.000175693
7 *21:10 *335:82 0.000501962
8 *21:10 *344:137 0.00018211
9 *21:10 *344:154 0.000319765
*RES
1 *1974:Y *21:10 43.7286 
2 *21:10 output_no[109] 21.133 
*END

*D_NET *22 0.0243699
*CONN
*P output_no[10] O
*I *2036:Y O *D sg13g2_nand2_1
*CAP
1 output_no[10] 0.000172801
2 *2036:Y 0
3 *22:36 0.000615108
4 *22:30 0.00646171
5 *22:28 0.0060194
6 *22:26 0.00173907
7 *22:20 0.00184123
8 *22:14 0.000567419
9 *22:6 0.000465265
10 output_no[10] output_o[10] 0.000265719
11 output_no[10] *94:8 0
12 *22:14 *171:16 0
13 *22:14 *173:12 0
14 *22:14 *271:18 0.00034304
15 *22:20 *45:12 0
16 *22:20 *307:50 7.78179e-05
17 *22:26 *42:14 0.00312349
18 *22:26 *271:18 0
19 *22:30 *42:14 0
20 *22:30 *171:16 0
21 *22:30 *271:18 0.0021714
22 *22:36 *150:22 0.000506443
23 *22:36 *327:24 0
*RES
1 *2036:Y *22:6 40 
2 *22:6 *22:14 44.9337 
3 *22:14 *22:20 40.7519 
4 *22:20 *22:26 43.1029 
5 *22:26 *22:28 20 
6 *22:28 *22:30 63.3862 
7 *22:30 *22:36 44.6453 
8 *22:36 output_no[10] 21.7819 
*END

*D_NET *23 0.0017283
*CONN
*P output_no[110] O
*I *1976:Y O *D sg13g2_nand2_1
*CAP
1 output_no[110] 0.000740174
2 *1976:Y 0.000740174
3 output_no[110] output_no[111] 0
4 output_no[110] output_o[110] 4.00421e-05
5 output_no[110] *1975:B 8.00842e-05
6 output_no[110] *1976:B 0.000127827
7 output_no[110] *332:97 0
*RES
1 *1976:Y output_no[110] 27.4984 
*END

*D_NET *24 0.000823419
*CONN
*P output_no[111] O
*I *1978:Y O *D sg13g2_nand2_1
*CAP
1 output_no[111] 0.000391617
2 *1978:Y 0.000391617
3 output_no[111] output_o[111] 4.01846e-05
4 output_no[111] output_o[112] 0
5 output_no[110] output_no[111] 0
*RES
1 *1978:Y output_no[111] 24.017 
*END

*D_NET *25 0.000752759
*CONN
*P output_no[112] O
*I *1982:Y O *D sg13g2_nand2_1
*CAP
1 output_no[112] 0.000316358
2 *1982:Y 0.000316358
3 output_no[112] output_o[112] 4.01846e-05
4 output_no[112] output_o[113] 0
5 output_no[112] *343:61 7.98582e-05
*RES
1 *1982:Y output_no[112] 22.392 
*END

*D_NET *26 0.000789578
*CONN
*P output_no[113] O
*I *1984:Y O *D sg13g2_nand2_1
*CAP
1 output_no[113] 0.000309854
2 *1984:Y 0.000309854
3 output_no[113] output_o[113] 0.000169869
4 output_no[113] output_o[114] 0
5 output_no[113] *158:24 0
*RES
1 *1984:Y output_no[113] 22.884 
*END

*D_NET *27 0.000797388
*CONN
*P output_no[114] O
*I *1986:Y O *D sg13g2_nand2_1
*CAP
1 output_no[114] 0.000249957
2 *1986:Y 0.000249957
3 output_no[114] output_o[114] 0.000297475
4 output_no[114] output_o[115] 0
*RES
1 *1986:Y output_no[114] 22.4308 
*END

*D_NET *28 0.000927868
*CONN
*P output_no[115] O
*I *1988:Y O *D sg13g2_nand2b_1
*CAP
1 output_no[115] 0.000242799
2 *1988:Y 0.000242799
3 output_no[115] output_o[115] 0.000169524
4 output_no[115] output_o[116] 0
5 output_no[115] *166:18 0.000272746
*RES
1 *1988:Y output_no[115] 22.5647 
*END

*D_NET *29 0.00117515
*CONN
*P output_no[116] O
*I *1990:Y O *D sg13g2_nand2_1
*CAP
1 output_no[116] 0.000107618
2 *1990:Y 0.00021406
3 *29:10 0.000321678
4 output_no[116] output_o[116] 0.000169409
5 *29:10 *41:10 0.000180942
6 *29:10 *169:12 0.000181443
*RES
1 *1990:Y *29:10 42.2454 
2 *29:10 output_no[116] 21.133 
*END

*D_NET *30 0.000735617
*CONN
*P output_no[117] O
*I *1992:Y O *D sg13g2_nand2_1
*CAP
1 output_no[117] 0.00025989
2 *1992:Y 0.00025989
3 output_no[117] output_o[117] 7.23838e-05
4 output_no[117] output_o[118] 0
5 output_no[117] *315:108 0.000143453
6 output_no[117] *344:201 0
*RES
1 *1992:Y output_no[117] 22.4308 
*END

*D_NET *31 0.00162142
*CONN
*P output_no[118] O
*I *1994:Y O *D sg13g2_nand2_1
*CAP
1 output_no[118] 0.000726886
2 *1994:Y 0.000726886
3 output_no[118] output_o[118] 4.00421e-05
4 output_no[118] output_o[119] 0
5 output_no[118] *1994:B 0
6 output_no[118] *32:10 4.75166e-05
7 output_no[118] *319:170 0
8 output_no[118] *333:98 8.00842e-05
*RES
1 *1994:Y output_no[118] 27.107 
*END

*D_NET *32 0.00204551
*CONN
*P output_no[119] O
*I *1996:Y O *D sg13g2_nand2b_1
*CAP
1 output_no[119] 0.000117277
2 *1996:Y 0.000256174
3 *32:10 0.000373451
4 output_no[119] output_o[119] 4.00421e-05
5 *32:10 output_o[118] 0
6 *32:10 *41:10 0.000605273
7 *32:10 *169:12 0.000605775
8 output_no[118] *32:10 4.75166e-05
*RES
1 *1996:Y *32:10 44.0067 
2 *32:10 output_no[119] 20.3938 
*END

*D_NET *33 0.000833517
*CONN
*P output_no[11] O
*I *2038:Y O *D sg13g2_nand2_1
*CAP
1 output_no[11] 0.000356865
2 *2038:Y 0.000356865
3 output_no[11] output_o[11] 4.00421e-05
4 output_no[11] output_o[12] 0
5 output_no[11] *2038:A 7.97453e-05
*RES
1 *2038:Y output_no[11] 24.017 
*END

*D_NET *34 0.0169779
*CONN
*P output_no[120] O
*I *1998:Y O *D sg13g2_nand2_1
*CAP
1 output_no[120] 0.000515561
2 *1998:Y 0.000295178
3 *34:12 0.00222612
4 *34:10 0.00200574
5 output_no[120] output_no[121] 0
6 output_no[120] output_o[120] 0.000815108
7 *34:10 *1966:B 0.000112426
8 *34:10 *1998:B 1.54008e-05
9 *34:10 *341:138 0.00011101
10 *34:12 *36:8 0
11 *34:12 *157:10 0.00514736
12 *34:12 *159:8 0.00573402
13 *34:12 *164:14 0
*RES
1 *1998:Y *34:10 42.8325 
2 *34:10 *34:12 32.9806 
3 *34:12 output_no[120] 25.459 
*END

*D_NET *35 0.0154737
*CONN
*P output_no[121] O
*I *2000:Y O *D sg13g2_nand2_1
*CAP
1 output_no[121] 0.000423534
2 *2000:Y 2.43877e-05
3 *35:10 0.00296573
4 *35:8 0.00256659
5 output_no[121] output_o[121] 7.23838e-05
6 output_no[121] output_o[122] 0
7 *35:8 *154:16 1.55212e-05
8 *35:10 output_o[125] 0.00297564
9 *35:10 *36:8 0
10 *35:10 *37:12 0
11 *35:10 *154:16 0.00355625
12 *35:10 *158:14 0
13 *35:10 *324:63 0.000234416
14 *35:10 *327:109 0
15 *35:10 *331:123 0.00263921
16 output_no[120] output_no[121] 0
*RES
1 *2000:Y *35:8 40.3193 
2 *35:8 *35:10 34.711 
3 *35:10 output_no[121] 23.9449 
*END

*D_NET *36 0.0138505
*CONN
*P output_no[122] O
*I *2002:Y O *D sg13g2_nand2_1
*CAP
1 output_no[122] 0.000468038
2 *2002:Y 0
3 *36:8 0.00265212
4 *36:6 0.00218408
5 output_no[122] output_o[122] 4.00421e-05
6 output_no[122] output_o[123] 0
7 *36:8 output_o[125] 0.00343807
8 *36:8 *154:16 0.00278999
9 *36:8 *158:18 0.00220241
10 *36:8 *159:8 0
11 *36:8 *164:14 0
12 *36:8 *165:10 0
13 *36:8 *328:118 0
14 *36:8 *343:34 7.57164e-05
15 *36:8 *343:47 0
16 *34:12 *36:8 0
17 *35:10 *36:8 0
*RES
1 *2002:Y *36:6 40 
2 *36:6 *36:8 33.2278 
3 *36:8 output_no[122] 24.3775 
*END

*D_NET *37 0.0128411
*CONN
*P output_no[123] O
*I *2004:Y O *D sg13g2_nand2_1
*CAP
1 output_no[123] 0.000328951
2 *2004:Y 0
3 *37:12 0.00282711
4 *37:6 0.00249816
5 output_no[123] output_no[124] 0
6 output_no[123] output_o[123] 0.000525103
7 *37:12 output_no[124] 0.00418244
8 *37:12 output_o[125] 0
9 *37:12 *1977:B 0.000234353
10 *37:12 *331:123 0.000300562
11 *37:12 *333:98 0.00155064
12 *37:12 *342:167 0.000393822
13 *35:10 *37:12 0
*RES
1 *2004:Y *37:6 40 
2 *37:6 *37:12 30.4365 
3 *37:12 output_no[123] 23.5123 
*END

*D_NET *38 0.00957953
*CONN
*P output_no[124] O
*I *2006:Y O *D sg13g2_nand2_1
*CAP
1 output_no[124] 0.00161291
2 *2006:Y 0.000103458
3 *38:8 0.00171637
4 output_no[124] output_no[126] 0
5 output_no[124] output_o[124] 4.00421e-05
6 output_no[124] output_o[125] 0
7 output_no[124] *319:176 0
8 output_no[124] *333:98 0.00178096
9 *38:8 *2006:B 0.000143351
10 output_no[123] output_no[124] 0
11 *37:12 output_no[124] 0.00418244
*RES
1 *2006:Y *38:8 40.9682 
2 *38:8 output_no[124] 44.9054 
*END

*D_NET *39 0.00861876
*CONN
*P output_no[125] O
*I *2008:Y O *D sg13g2_nand2_1
*CAP
1 output_no[125] 0.00130182
2 *2008:Y 0.000259714
3 *39:12 0.00156153
4 output_no[125] output_o[117] 7.52149e-05
5 output_no[125] output_o[121] 0.00119296
6 output_no[125] output_o[124] 0
7 output_no[125] output_o[125] 0.000104956
8 output_no[125] output_o[126] 0
9 output_no[125] *169:12 0.00396372
10 *39:12 *315:108 0.000111112
11 *39:12 *330:112 4.77425e-05
*RES
1 *2008:Y *39:12 42.5338 
2 *39:12 output_no[125] 39.0962 
*END

*D_NET *40 0.00857501
*CONN
*P output_no[126] O
*I *2010:Y O *D sg13g2_nand2_1
*CAP
1 output_no[126] 0.00171714
2 *2010:Y 0
3 *40:6 0.00171714
4 output_no[126] output_o[125] 0
5 output_no[126] output_o[126] 0.00408574
6 output_no[126] output_o[127] 0
7 output_no[126] *41:10 0
8 output_no[126] *319:176 0.000501548
9 output_no[126] *330:112 0
10 output_no[126] *344:201 0.000553438
11 output_no[124] output_no[126] 0
*RES
1 *2010:Y *40:6 40 
2 *40:6 output_no[126] 44.5346 
*END

*D_NET *41 0.0101904
*CONN
*P output_no[127] O
*I *2012:Y O *D sg13g2_nand2_1
*CAP
1 output_no[127] 0.000116618
2 *2012:Y 0.000160495
3 *41:10 0.00316399
4 *41:8 0.00320786
5 output_no[127] output_o[127] 0.000137412
6 *41:10 output_o[126] 0
7 *41:10 *1995:B 0
8 *41:10 *2011:A 0.000392886
9 *41:10 *156:10 0.000181192
10 *41:10 *169:12 0
11 *41:10 *315:108 0.00204374
12 *41:10 *344:201 0
13 output_no[126] *41:10 0
14 *29:10 *41:10 0.000180942
15 *32:10 *41:10 0.000605273
*RES
1 *2012:Y *41:8 41.1845 
2 *41:8 *41:10 31.9918 
3 *41:10 output_no[127] 21.3493 
*END

*D_NET *42 0.0336671
*CONN
*P output_no[12] O
*I *2040:Y O *D sg13g2_nand2_1
*CAP
1 output_no[12] 0.000283323
2 *2040:Y 0
3 *42:20 0.000632817
4 *42:14 0.00547438
5 *42:12 0.00552321
6 *42:6 0.000398319
7 output_no[12] output_no[13] 0
8 output_no[12] output_o[12] 0.000329932
9 output_no[12] output_o[13] 0
10 *42:14 *170:16 0.0120266
11 *42:14 *271:18 0.00527356
12 *42:20 *170:22 0.000601463
13 *42:20 *171:22 0
14 *22:26 *42:14 0.00312349
15 *22:30 *42:14 0
*RES
1 *2040:Y *42:6 40 
2 *42:6 *42:12 43.7801 
3 *42:12 *42:14 73.2742 
4 *42:14 *42:20 43.9964 
5 *42:20 output_no[12] 22.8634 
*END

*D_NET *43 0.0319641
*CONN
*P output_no[13] O
*I *2042:Y O *D sg13g2_nand2_1
*CAP
1 output_no[13] 0.000153039
2 *2042:Y 0
3 *43:20 0.000346068
4 *43:14 0.00635264
5 *43:12 0.00626189
6 *43:6 0.000102283
7 output_no[13] output_o[13] 0.000104868
8 output_no[13] output_o[14] 0
9 *43:12 *171:14 0
10 *43:12 *189:12 0.000143656
11 *43:14 *138:14 0.0182289
12 *43:14 *171:16 0
13 *43:14 *172:12 0
14 *43:14 *326:31 0
15 *43:20 *171:22 0.000270712
16 output_no[12] output_no[13] 0
*RES
1 *2042:Y *43:6 40 
2 *43:6 *43:12 40.9682 
3 *43:12 *43:14 89.3422 
4 *43:14 *43:20 41.8334 
5 *43:20 output_no[13] 21.5656 
*END

*D_NET *44 0.0331407
*CONN
*P output_no[14] O
*I *2044:Y O *D sg13g2_nand2_1
*CAP
1 output_no[14] 0.000275398
2 *2044:Y 0
3 *44:20 0.00100982
4 *44:14 0.00577248
5 *44:12 0.00582666
6 *44:6 0.00078861
7 output_no[14] output_o[14] 0.00039457
8 output_no[14] output_o[15] 0
9 output_no[14] *2020:B 0
10 output_no[14] *61:18 0
11 output_no[14] *315:14 0
12 *44:12 *310:53 0
13 *44:12 *310:61 0
14 *44:14 *150:16 0.0188652
15 *44:14 *189:16 0
16 *44:20 *45:22 0
17 *44:20 *172:18 0.000208037
18 *44:20 *173:20 0
*RES
1 *2044:Y *44:6 40 
2 *44:6 *44:12 47.6735 
3 *44:12 *44:14 90.331 
4 *44:14 *44:20 47.8898 
5 *44:20 output_no[14] 22.8634 
*END

*D_NET *45 0.0431991
*CONN
*P output_no[15] O
*I *2046:Y O *D sg13g2_nand2_1
*CAP
1 output_no[15] 0.000148166
2 *2046:Y 0
3 *45:22 0.000960106
4 *45:14 0.00296084
5 *45:12 0.00294616
6 *45:6 0.000797262
7 output_no[15] output_o[15] 4.01846e-05
8 output_no[15] output_o[16] 0
9 output_no[15] *61:18 7.98567e-05
10 output_no[15] *315:14 0.000144683
11 output_no[15] *346:64 0
12 *45:12 *173:12 0
13 *45:12 *307:50 0
14 *45:14 *150:16 0.0168487
15 *45:14 *173:14 0.0168457
16 *45:22 *139:10 7.48209e-05
17 *45:22 *173:20 0.00127943
18 *45:22 *346:70 7.33256e-05
19 *22:20 *45:12 0
20 *44:20 *45:22 0
*RES
1 *2046:Y *45:6 40 
2 *45:6 *45:12 47.2409 
3 *45:12 *45:14 74.263 
4 *45:14 *45:22 49.1052 
5 *45:22 output_no[15] 21.5656 
*END

*D_NET *46 0.0047429
*CONN
*P output_no[16] O
*I *2048:Y O *D sg13g2_nand2_1
*CAP
1 output_no[16] 0.000694835
2 *2048:Y 0.000345955
3 *46:10 0.00104079
4 output_no[16] output_o[16] 0.000201705
5 output_no[16] *293:24 0.000289002
6 output_no[16] *313:26 0.00183561
7 output_no[16] *326:12 0
8 *46:10 output_o[20] 0.000143351
9 *46:10 *2048:A 4.77425e-05
10 *46:10 *273:40 0.00014391
11 *46:10 *307:10 0
*RES
1 *2048:Y *46:10 43.2651 
2 *46:10 output_no[16] 29.8571 
*END

*D_NET *47 0.000536827
*CONN
*P output_no[17] O
*I *2050:X O *D sg13g2_or2_1
*CAP
1 output_no[17] 0.000248392
2 *2050:X 0.000248392
3 output_no[17] output_o[17] 4.00421e-05
4 output_no[17] output_o[18] 0
*RES
1 *2050:X output_no[17] 22.2145 
*END

*D_NET *48 0.000810606
*CONN
*P output_no[18] O
*I *2052:X O *D sg13g2_or2_1
*CAP
1 output_no[18] 0.000264653
2 *2052:X 0.000264653
3 output_no[18] output_o[18] 0.000265899
4 output_no[18] output_o[19] 0
5 output_no[18] *2052:A 1.54008e-05
*RES
1 *2052:X output_no[18] 22.5647 
*END

*D_NET *49 0.000602506
*CONN
*P output_no[19] O
*I *2054:X O *D sg13g2_or2_1
*CAP
1 output_no[19] 0.000273532
2 *2054:X 0.000273532
3 output_no[19] output_o[19] 4.00421e-05
4 output_no[19] *2054:A 1.54008e-05
5 output_no[19] *293:28 0
*RES
1 *2054:X output_no[19] 21.7287 
*END

*D_NET *50 0.0113172
*CONN
*P output_no[1] O
*I *2018:Y O *D sg13g2_nand2_1
*CAP
1 output_no[1] 0.000198294
2 *2018:Y 0
3 *50:16 0.00323918
4 *50:6 0.00304089
5 output_no[1] output_o[1] 0.000331095
6 output_no[1] output_o[2] 0
7 *50:16 output_o[2] 0.00018211
8 *50:16 *2022:B 0.000287256
9 *50:16 *105:8 0.000874343
10 *50:16 *200:8 0
11 *50:16 *306:10 0
12 *50:16 *312:185 0
13 *50:16 *315:18 0
14 *50:16 *326:12 0
15 *50:16 *345:74 0.000443067
16 *50:16 *345:80 0.00119169
17 *50:16 *345:84 0.000552371
18 *50:16 *345:95 0
19 *50:16 *345:97 0
20 *50:16 *345:99 0.000106064
21 *50:16 *345:101 0.000159096
22 *50:16 *346:70 0
23 *50:16 *346:76 0.000711753
24 *50:16 *346:80 0
25 *11:20 *50:16 0
*RES
1 *2018:Y *50:6 40 
2 *50:6 *50:16 34.0415 
3 *50:16 output_no[1] 22.2145 
*END

*D_NET *51 0.00139477
*CONN
*P output_no[20] O
*I *2056:Y O *D sg13g2_nand2_1
*CAP
1 output_no[20] 0.000251846
2 *2056:Y 4.66905e-05
3 *51:8 0.000298536
4 output_no[20] output_o[20] 0.000329701
5 *51:8 *274:74 0.000234
6 *51:8 *294:22 0.000234
*RES
1 *2056:Y *51:8 41.0918 
2 *51:8 output_no[20] 22.4308 
*END

*D_NET *52 0.00160181
*CONN
*P output_no[21] O
*I *2058:Y O *D sg13g2_nand2_1
*CAP
1 output_no[21] 0.000562419
2 *2058:Y 0.000562419
3 output_no[21] output_o[21] 4.00421e-05
4 output_no[21] *2057:B 0
5 output_no[21] *2060:A 0.000143674
6 output_no[21] *273:69 7.92265e-05
7 output_no[21] *273:84 0.000144387
8 output_no[21] *296:14 0
9 output_no[21] *306:10 4.74714e-05
10 output_no[21] *306:27 2.21754e-05
*RES
1 *2058:Y output_no[21] 26.0976 
*END

*D_NET *53 0.00158292
*CONN
*P output_no[22] O
*I *2060:Y O *D sg13g2_nand2_1
*CAP
1 output_no[22] 0.000120148
2 *2060:Y 0.000186298
3 *53:10 0.000306446
4 output_no[22] output_o[22] 0.00020175
5 output_no[22] *345:64 8.00842e-05
6 *53:10 *2060:A 0.000111523
7 *53:10 *293:24 0.000288087
8 *53:10 *313:26 0.000288587
*RES
1 *2060:Y *53:10 42.5235 
2 *53:10 output_no[22] 21.3493 
*END

*D_NET *54 0.000624587
*CONN
*P output_no[23] O
*I *2062:X O *D sg13g2_or2_1
*CAP
1 output_no[23] 0.000292272
2 *2062:X 0.000292272
3 output_no[23] output_o[23] 4.00421e-05
4 output_no[23] *2061:B 0
5 output_no[23] *315:8 0
*RES
1 *2062:X output_no[23] 22.2831 
*END

*D_NET *55 0.000815368
*CONN
*P output_no[24] O
*I *2064:X O *D sg13g2_or2_1
*CAP
1 output_no[24] 0.000242741
2 *2064:X 0.000242741
3 output_no[24] output_o[24] 0.000329886
*RES
1 *2064:X output_no[24] 22.5647 
*END

*D_NET *56 0.000706673
*CONN
*P output_no[25] O
*I *2066:X O *D sg13g2_or2_1
*CAP
1 output_no[25] 0.000268632
2 *2066:X 0.000268632
3 output_no[25] output_o[25] 0.000169409
4 output_no[25] output_o[26] 0
5 output_no[25] *184:10 0
*RES
1 *2066:X output_no[25] 22.5647 
*END

*D_NET *57 0.000858522
*CONN
*P output_no[26] O
*I *2068:X O *D sg13g2_or2_1
*CAP
1 output_no[26] 0.00020125
2 *2068:X 0.00020125
3 output_no[26] output_o[26] 4.00421e-05
4 output_no[26] *301:28 0.000175648
5 output_no[26] *313:16 0.000240331
*RES
1 *2068:X output_no[26] 22.2145 
*END

*D_NET *58 0.0005882
*CONN
*P output_no[27] O
*I *2070:X O *D sg13g2_or2_1
*CAP
1 output_no[27] 0.000274079
2 *2070:X 0.000274079
3 output_no[27] output_o[27] 4.00421e-05
4 output_no[27] output_o[28] 0
*RES
1 *2070:X output_no[27] 22.5647 
*END

*D_NET *59 0.000545151
*CONN
*P output_no[28] O
*I *1744:Y O *D sg13g2_nand2b_1
*CAP
1 output_no[28] 0.000252555
2 *1744:Y 0.000252555
3 output_no[28] output_o[28] 4.00421e-05
4 output_no[28] output_o[29] 0
5 output_no[28] *273:28 0
*RES
1 *1744:Y output_no[28] 22.2145 
*END

*D_NET *60 0.00138326
*CONN
*P output_no[29] O
*I *1748:X O *D sg13g2_or2_1
*CAP
1 output_no[29] 0.000462075
2 *1748:X 0.000462075
3 output_no[29] output_o[29] 0.000459108
4 output_no[29] output_o[30] 0
5 output_no[29] *1747:B 0
6 output_no[29] *274:40 0
7 output_no[29] *278:24 0
*RES
1 *1748:X output_no[29] 24.5114 
*END

*D_NET *61 0.00799486
*CONN
*P output_no[2] O
*I *2020:Y O *D sg13g2_nand2_1
*CAP
1 output_no[2] 0.00173278
2 *2020:Y 0.000837645
3 *61:18 0.00257042
4 output_no[2] output_no[5] 0
5 output_no[2] output_o[2] 4.01846e-05
6 output_no[2] output_o[4] 0.00268623
7 output_no[2] *72:10 0
8 output_no[2] *139:10 0
9 output_no[2] *313:26 0
10 *61:18 output_o[15] 0
11 *61:18 *2020:B 4.77425e-05
12 *61:18 *313:26 0
13 output_no[14] *61:18 0
14 output_no[15] *61:18 7.98567e-05
*RES
1 *2020:Y *61:18 48.8374 
2 *61:18 output_no[2] 42.9896 
*END

*D_NET *62 0.000625373
*CONN
*P output_no[30] O
*I *1752:X O *D sg13g2_or2_1
*CAP
1 output_no[30] 0.000292665
2 *1752:X 0.000292665
3 output_no[30] output_o[30] 4.00421e-05
4 output_no[30] output_o[31] 0
5 output_no[30] *278:24 0
*RES
1 *1752:X output_no[30] 22.5647 
*END

*D_NET *63 0.00334997
*CONN
*P output_no[31] O
*I *1757:Y O *D sg13g2_nand2_1
*CAP
1 output_no[31] 0.0002781
2 *1757:Y 0.000577078
3 *63:12 0.000855177
4 output_no[31] output_no[32] 0
5 output_no[31] output_o[31] 0.000426651
6 output_no[31] output_o[32] 0
7 output_no[31] *1765:A 0
8 *63:12 *1752:B 1.53556e-05
9 *63:12 *1752:A 0.000128334
10 *63:12 *1757:A 1.54008e-05
11 *63:12 *273:22 0.000498134
12 *63:12 *274:46 0
13 *63:12 *299:14 0.000555736
14 *63:12 *326:12 0
*RES
1 *1757:Y *63:12 46.7362 
2 *63:12 output_no[31] 22.8634 
*END

*D_NET *64 0.00179442
*CONN
*P output_no[32] O
*I *1766:Y O *D sg13g2_nand2_1
*CAP
1 output_no[32] 0.000732381
2 *1766:Y 0.000732381
3 output_no[32] output_o[32] 0.000329656
4 output_no[32] output_o[33] 0
5 output_no[32] *1765:A 0
6 output_no[32] *1769:B 0
7 output_no[31] output_no[32] 0
*RES
1 *1766:Y output_no[32] 27.0246 
*END

*D_NET *65 0.00205591
*CONN
*P output_no[33] O
*I *1770:X O *D sg13g2_or2_1
*CAP
1 output_no[33] 0.000742591
2 *1770:X 0.000742591
3 output_no[33] output_o[33] 4.00421e-05
4 output_no[33] output_o[34] 0
5 output_no[33] *1769:B 0
6 output_no[33] *288:101 0.000530685
*RES
1 *1770:X output_no[33] 27.7531 
*END

*D_NET *66 0.00273975
*CONN
*P output_no[34] O
*I *1774:X O *D sg13g2_or2_1
*CAP
1 output_no[34] 0.00126203
2 *1774:X 0.00126203
3 output_no[34] output_o[34] 4.00421e-05
4 output_no[34] *195:10 0.000175648
5 output_no[34] *288:127 0
6 output_no[34] *293:8 0
7 output_no[34] *293:22 0
8 *7:81 output_no[34] 0
*RES
1 *1774:X output_no[34] 31.0519 
*END

*D_NET *67 0.000752902
*CONN
*P output_no[35] O
*I *1777:X O *D sg13g2_or2_1
*CAP
1 output_no[35] 0.000291747
2 *1777:X 0.000291747
3 output_no[35] output_o[35] 0.000169409
4 output_no[35] *293:8 0
*RES
1 *1777:X output_no[35] 22.7239 
*END

*D_NET *68 0.00128076
*CONN
*P output_no[36] O
*I *1780:Y O *D sg13g2_nand2_1
*CAP
1 output_no[36] 0.000278322
2 *1780:Y 5.38631e-05
3 *68:8 0.000332185
4 output_no[36] output_o[36] 4.00421e-05
5 *68:8 *287:66 0.000212543
6 *68:8 *287:72 7.56299e-05
7 *68:8 *288:73 0.000288173
*RES
1 *1780:Y *68:8 41.339 
2 *68:8 output_no[36] 22.4308 
*END

*D_NET *69 0.00131453
*CONN
*P output_no[37] O
*I *1783:Y O *D sg13g2_nand2_1
*CAP
1 output_no[37] 0.000224118
2 *1783:Y 5.22015e-05
3 *69:8 0.000276319
4 output_no[37] output_o[37] 0.000362043
5 output_no[37] *345:54 0.000143351
6 *69:8 *287:64 7.52149e-05
7 *69:8 *288:73 0.000181279
*RES
1 *1783:Y *69:8 40.8446 
2 *69:8 output_no[37] 22.4308 
*END

*D_NET *70 0.00128518
*CONN
*P output_no[38] O
*I *1786:Y O *D sg13g2_nand2_1
*CAP
1 output_no[38] 0.000118674
2 *1786:Y 0.000201987
3 *70:10 0.00032066
4 output_no[38] output_o[38] 0.000169409
5 *70:10 *1786:A 0.000111568
6 *70:10 *270:26 0.000181192
7 *70:10 *301:22 0.000181694
*RES
1 *1786:Y *70:10 42.2454 
2 *70:10 output_no[38] 21.133 
*END

*D_NET *71 0.00220357
*CONN
*P output_no[39] O
*I *1789:X O *D sg13g2_or2_1
*CAP
1 output_no[39] 0.000649058
2 *1789:X 0.000649058
3 output_no[39] output_o[39] 4.01846e-05
4 output_no[39] output_o[40] 0
5 output_no[39] *1792:A 0
6 output_no[39] *2031:A 0.000208035
7 output_no[39] *201:10 0.000175693
8 output_no[39] *255:16 1.54008e-05
9 output_no[39] *299:8 0.000466143
*RES
1 *1789:X output_no[39] 26.0067 
*END

*D_NET *72 0.00437239
*CONN
*P output_no[3] O
*I *2022:Y O *D sg13g2_nand2b_1
*CAP
1 output_no[3] 9.97477e-05
2 *2022:Y 0.000512338
3 *72:10 0.000612085
4 output_no[3] output_no[4] 0
5 output_no[3] output_o[3] 0.000169754
6 output_no[3] output_o[4] 0
7 *72:10 output_no[4] 0.00124897
8 *72:10 output_no[6] 0
9 *72:10 *139:10 0.00172949
10 output_no[2] *72:10 0
*RES
1 *2022:Y *72:10 49.1979 
2 *72:10 output_no[3] 21.133 
*END

*D_NET *73 0.00073773
*CONN
*P output_no[40] O
*I *1793:X O *D sg13g2_or2_1
*CAP
1 output_no[40] 0.000284045
2 *1793:X 0.000284045
3 output_no[40] output_o[40] 0.000169639
4 output_no[40] output_o[41] 0
*RES
1 *1793:X output_no[40] 22.8119 
*END

*D_NET *74 0.00145481
*CONN
*P output_no[41] O
*I *1796:X O *D sg13g2_or2_1
*CAP
1 output_no[41] 0.000466187
2 *1796:X 0.000466187
3 output_no[41] output_o[41] 0.000329931
4 output_no[41] output_o[42] 0
5 output_no[41] *1795:B 8.00842e-05
6 output_no[41] *203:10 0
7 output_no[41] *288:230 0.000112426
8 output_no[41] *301:18 0
*RES
1 *1796:X output_no[41] 24.5114 
*END

*D_NET *75 0.000684231
*CONN
*P output_no[42] O
*I *1799:X O *D sg13g2_or2_1
*CAP
1 output_no[42] 0.000257296
2 *1799:X 0.000257296
3 output_no[42] output_o[42] 0.000169639
4 output_no[42] output_o[43] 0
*RES
1 *1799:X output_no[42] 22.5647 
*END

*D_NET *76 0.00122896
*CONN
*P output_no[43] O
*I *1802:X O *D sg13g2_or2_1
*CAP
1 output_no[43] 0.000538176
2 *1802:X 0.000538176
3 output_no[43] output_o[43] 4.01846e-05
4 output_no[43] output_o[44] 0
5 output_no[43] *2040:A 0.000112426
6 output_no[43] *328:14 0
*RES
1 *1802:X output_no[43] 25.2118 
*END

*D_NET *77 0.00052396
*CONN
*P output_no[44] O
*I *1804:Y O *D sg13g2_nand2b_1
*CAP
1 output_no[44] 0.000241888
2 *1804:Y 0.000241888
3 output_no[44] output_o[44] 4.01846e-05
4 output_no[44] output_o[45] 0
5 output_no[44] *316:24 0
*RES
1 *1804:Y output_no[44] 22.2145 
*END

*D_NET *78 0.0023062
*CONN
*P output_no[45] O
*I *1806:Y O *D sg13g2_nand2b_1
*CAP
1 output_no[45] 0.000643905
2 *1806:Y 0.000643905
3 output_no[45] output_o[45] 4.01846e-05
4 output_no[45] output_o[46] 0
5 output_no[45] *278:18 0.00030506
6 output_no[45] *316:10 0.000465114
7 output_no[45] *318:10 0
8 output_no[45] *318:22 0.000208035
*RES
1 *1806:Y output_no[45] 26.1765 
*END

*D_NET *79 0.000683876
*CONN
*P output_no[46] O
*I *1808:Y O *D sg13g2_nand2b_1
*CAP
1 output_no[46] 0.000257119
2 *1808:Y 0.000257119
3 output_no[46] output_o[46] 0.000169639
4 output_no[46] output_o[47] 0
5 output_no[46] *335:16 0
*RES
1 *1808:Y output_no[46] 22.5647 
*END

*D_NET *80 0.00185954
*CONN
*P output_no[47] O
*I *1810:Y O *D sg13g2_nand2_1
*CAP
1 output_no[47] 0.000837721
2 *1810:Y 0.000837721
3 output_no[47] output_no[48] 0
4 output_no[47] output_o[47] 4.01846e-05
5 output_no[47] output_o[48] 0
6 output_no[47] *1817:B 0
7 output_no[47] *306:33 0
8 output_no[47] *307:41 0.00014391
9 output_no[47] *324:12 0
*RES
1 *1810:Y output_no[47] 28.4048 
*END

*D_NET *81 0.000771651
*CONN
*P output_no[48] O
*I *1817:Y O *D sg13g2_nand2_1
*CAP
1 output_no[48] 0.000341862
2 *1817:Y 0.000341862
3 output_no[48] output_no[49] 0
4 output_no[48] output_o[48] 4.01846e-05
5 output_no[48] output_o[49] 0
6 output_no[48] *304:52 4.77425e-05
7 output_no[48] *322:20 0
8 output_no[47] output_no[48] 0
*RES
1 *1817:Y output_no[48] 23.7698 
*END

*D_NET *82 0.00155426
*CONN
*P output_no[49] O
*I *1821:Y O *D sg13g2_nand2_1
*CAP
1 output_no[49] 0.000558737
2 *1821:Y 0.000558737
3 output_no[49] output_o[49] 4.00421e-05
4 output_no[49] *1820:A 0
5 output_no[49] *2034:A 0.000146015
6 output_no[49] *2035:B 7.50789e-05
7 output_no[49] *210:10 0
8 output_no[49] *325:12 0.000175648
9 output_no[48] output_no[49] 0
*RES
1 *1821:Y output_no[49] 26.0947 
*END

*D_NET *83 0.00530335
*CONN
*P output_no[4] O
*I *2024:Y O *D sg13g2_nand2_1
*CAP
1 output_no[4] 0.000812422
2 *2024:Y 0.000183871
3 *83:8 0.000996293
4 output_no[4] output_no[5] 0.00178137
5 output_no[4] output_o[4] 7.23838e-05
6 output_no[4] *139:10 0
7 *83:8 *2024:A 0.000208035
8 output_no[3] output_no[4] 0
9 *72:10 output_no[4] 0.00124897
*RES
1 *2024:Y *83:8 41.6171 
2 *83:8 output_no[4] 31.4021 
*END

*D_NET *84 0.000639719
*CONN
*P output_no[50] O
*I *1825:Y O *D sg13g2_nand2_1
*CAP
1 output_no[50] 0.000259852
2 *1825:Y 0.000259852
3 output_no[50] output_o[50] 4.01572e-05
4 output_no[50] output_o[51] 0
5 output_no[50] *1825:A 7.98582e-05
*RES
1 *1825:Y output_no[50] 21.0404 
*END

*D_NET *85 0.00108503
*CONN
*P output_no[51] O
*I *1828:X O *D sg13g2_or2_1
*CAP
1 output_no[51] 0.000264886
2 *1828:X 2.49527e-05
3 *85:8 0.000289839
4 output_no[51] output_o[51] 0.00024875
5 output_no[51] output_o[52] 0
6 output_no[51] *1828:A 0
7 *85:8 *304:42 0.000128353
8 *85:8 *325:29 0.000128247
*RES
1 *1828:X *85:8 40.5974 
2 *85:8 output_no[51] 22.2981 
*END

*D_NET *86 0.000714436
*CONN
*P output_no[52] O
*I *1832:Y O *D sg13g2_nand2_1
*CAP
1 output_no[52] 0.00029721
2 *1832:Y 0.00029721
3 output_no[52] output_o[52] 4.01572e-05
4 output_no[52] output_o[53] 0
5 output_no[52] *1832:A 7.98582e-05
*RES
1 *1832:Y output_no[52] 22.3296 
*END

*D_NET *87 0.000725745
*CONN
*P output_no[53] O
*I *1836:Y O *D sg13g2_nand2_1
*CAP
1 output_no[53] 0.000302865
2 *1836:Y 0.000302865
3 output_no[53] output_o[53] 4.01572e-05
4 output_no[53] output_o[54] 0
5 output_no[53] *1836:A 7.98582e-05
*RES
1 *1836:Y output_no[53] 22.884 
*END

*D_NET *88 0.000679262
*CONN
*P output_no[54] O
*I *1840:Y O *D sg13g2_nand2_1
*CAP
1 output_no[54] 0.000255752
2 *1840:Y 0.000255752
3 output_no[54] output_o[54] 4.01572e-05
4 output_no[54] output_o[55] 0
5 output_no[54] *1840:A 7.98582e-05
6 output_no[54] *1840:B 4.77425e-05
*RES
1 *1840:Y output_no[54] 21.9644 
*END

*D_NET *89 0.000592244
*CONN
*P output_no[55] O
*I *1843:X O *D sg13g2_or2_1
*CAP
1 output_no[55] 0.000276044
2 *1843:X 0.000276044
3 output_no[55] output_o[55] 4.01572e-05
4 output_no[55] output_o[56] 0
*RES
1 *1843:X output_no[55] 22.5647 
*END

*D_NET *90 0.00064552
*CONN
*P output_no[56] O
*I *1847:Y O *D sg13g2_nand2_1
*CAP
1 output_no[56] 0.000262752
2 *1847:Y 0.000262752
3 output_no[56] output_o[56] 4.01572e-05
4 output_no[56] output_o[57] 0
5 output_no[56] *1847:A 7.98582e-05
*RES
1 *1847:Y output_no[56] 21.7796 
*END

*D_NET *91 0.000889969
*CONN
*P output_no[57] O
*I *1851:Y O *D sg13g2_nand2_1
*CAP
1 output_no[57] 0.000232447
2 *1851:Y 0.000232447
3 output_no[57] output_o[57] 4.01572e-05
4 output_no[57] output_o[58] 0
5 output_no[57] *1851:A 7.98582e-05
6 output_no[57] *1851:B 0.00030506
7 output_no[57] *325:35 0
*RES
1 *1851:Y output_no[57] 22.4308 
*END

*D_NET *92 0.000824476
*CONN
*P output_no[58] O
*I *1855:Y O *D sg13g2_nand2_1
*CAP
1 output_no[58] 0.000280612
2 *1855:Y 0.000280612
3 output_no[58] output_o[58] 4.00421e-05
4 output_no[58] *1855:A 7.98582e-05
5 output_no[58] *1855:B 0.000143351
*RES
1 *1855:Y output_no[58] 22.6024 
*END

*D_NET *93 0.000784415
*CONN
*P output_no[59] O
*I *1859:Y O *D sg13g2_nand2_1
*CAP
1 output_no[59] 0.000332258
2 *1859:Y 0.000332258
3 output_no[59] output_o[59] 4.00421e-05
4 output_no[59] *1859:A 7.98582e-05
*RES
1 *1859:Y output_no[59] 23.1312 
*END

*D_NET *94 0.00610137
*CONN
*P output_no[5] O
*I *2026:Y O *D sg13g2_nand2_1
*CAP
1 output_no[5] 0.000827316
2 *2026:Y 0.000203446
3 *94:8 0.00103076
4 output_no[5] output_o[4] 0.00215375
5 output_no[5] output_o[5] 0.000104725
6 output_no[5] *139:10 0
7 output_no[5] *313:26 0
8 *94:8 output_o[10] 0
9 *94:8 *346:72 0
10 output_no[10] *94:8 0
11 output_no[2] output_no[5] 0
12 output_no[4] output_no[5] 0.00178137
*RES
1 *2026:Y *94:8 41.8334 
2 *94:8 output_no[5] 32.9162 
*END

*D_NET *95 0.000780319
*CONN
*P output_no[60] O
*I *1863:Y O *D sg13g2_nand2_1
*CAP
1 output_no[60] 0.00034629
2 *1863:Y 0.00034629
3 output_no[60] output_o[60] 4.00421e-05
4 output_no[60] *1863:B 0
5 output_no[60] *304:28 4.76973e-05
*RES
1 *1863:Y output_no[60] 23.0792 
*END

*D_NET *96 0.00127539
*CONN
*P output_no[61] O
*I *1867:Y O *D sg13g2_nand2_1
*CAP
1 output_no[61] 0.00010739
2 *1867:Y 0.000210711
3 *96:10 0.000318101
4 output_no[61] output_o[61] 0.000169409
5 *96:10 output_o[61] 0
6 *96:10 *316:32 0.00023464
7 *96:10 *318:33 0.000235141
*RES
1 *1867:Y *96:10 42.4926 
2 *96:10 output_no[61] 21.133 
*END

*D_NET *97 0.0014183
*CONN
*P output_no[62] O
*I *1871:Y O *D sg13g2_nand2_1
*CAP
1 output_no[62] 0.000107618
2 *1871:Y 0.000223013
3 *97:10 0.000330631
4 output_no[62] output_o[62] 0.000169409
5 *97:10 *1874:B 0
6 *97:10 *226:12 0
7 *97:10 *316:32 0.000285866
8 *97:10 *318:33 0.000286366
9 *97:10 *332:35 1.54008e-05
*RES
1 *1871:Y *97:10 42.7398 
2 *97:10 output_no[62] 21.133 
*END

*D_NET *98 0.000730373
*CONN
*P output_no[63] O
*I *1875:Y O *D sg13g2_nand2_1
*CAP
1 output_no[63] 0.000328995
2 *1875:Y 0.000328995
3 output_no[63] output_o[63] 7.23838e-05
4 output_no[63] output_o[64] 0
*RES
1 *1875:Y output_no[63] 23.1312 
*END

*D_NET *99 0.000930697
*CONN
*P output_no[64] O
*I *1880:Y O *D sg13g2_nand2_1
*CAP
1 output_no[64] 0.000445327
2 *1880:Y 0.000445327
3 output_no[64] output_no[65] 0
4 output_no[64] output_o[64] 4.00421e-05
*RES
1 *1880:Y output_no[64] 24.7586 
*END

*D_NET *100 0.00142654
*CONN
*P output_no[65] O
*I *1882:Y O *D sg13g2_nand2_1
*CAP
1 output_no[65] 0.000516683
2 *1882:Y 0.000516683
3 output_no[65] output_o[65] 0.000169409
4 output_no[65] *1880:B 8.00842e-05
5 output_no[65] *228:10 0.000143676
6 output_no[64] output_no[65] 0
*RES
1 *1882:Y output_no[65] 24.9646 
*END

*D_NET *101 0.000838064
*CONN
*P output_no[66] O
*I *1884:Y O *D sg13g2_nand2_1
*CAP
1 output_no[66] 0.000399011
2 *1884:Y 0.000399011
3 output_no[66] output_no[67] 0
4 output_no[66] output_o[66] 4.00421e-05
*RES
1 *1884:Y output_no[66] 24.2642 
*END

*D_NET *102 0.000691669
*CONN
*P output_no[67] O
*I *1886:Y O *D sg13g2_nand2b_1
*CAP
1 output_no[67] 0.00026113
2 *1886:Y 0.00026113
3 output_no[67] output_o[67] 0.000169409
4 output_no[67] *230:10 0
5 output_no[66] output_no[67] 0
*RES
1 *1886:Y output_no[67] 22.5647 
*END

*D_NET *103 0.000819453
*CONN
*P output_no[68] O
*I *1888:Y O *D sg13g2_nand2_1
*CAP
1 output_no[68] 0.000389705
2 *1888:Y 0.000389705
3 output_no[68] output_no[69] 0
4 output_no[68] output_o[68] 4.00421e-05
*RES
1 *1888:Y output_no[68] 24.2642 
*END

*D_NET *104 0.000928822
*CONN
*P output_no[69] O
*I *1890:Y O *D sg13g2_nand2_1
*CAP
1 output_no[69] 0.000348827
2 *1890:Y 0.000348827
3 output_no[69] output_no[70] 0
4 output_no[69] output_o[69] 4.00421e-05
5 output_no[69] *1890:A 4.77425e-05
6 output_no[69] *318:37 0
7 output_no[69] *337:47 0.000143384
8 output_no[68] output_no[69] 0
*RES
1 *1890:Y output_no[69] 24.017 
*END

*D_NET *105 0.00256324
*CONN
*P output_no[6] O
*I *2028:Y O *D sg13g2_nand2_1
*CAP
1 output_no[6] 0.000229535
2 *2028:Y 0.00032939
3 *105:8 0.000558925
4 output_no[6] output_o[6] 0.000362718
5 output_no[6] *2021:B 8.00764e-05
6 *105:8 *2021:B 0
7 *105:8 *200:8 0.000128248
8 *105:8 *346:80 0
9 *50:16 *105:8 0.000874343
10 *72:10 output_no[6] 0
*RES
1 *2028:Y *105:8 44.0582 
2 *105:8 output_no[6] 22.4308 
*END

*D_NET *106 0.000836185
*CONN
*P output_no[70] O
*I *1892:Y O *D sg13g2_nand2_1
*CAP
1 output_no[70] 0.000326418
2 *1892:Y 0.000326418
3 output_no[70] output_o[70] 4.00421e-05
4 output_no[70] output_o[71] 0
5 output_no[70] *337:47 0.000143306
6 output_no[69] output_no[70] 0
*RES
1 *1892:Y output_no[70] 23.7698 
*END

*D_NET *107 0.00081095
*CONN
*P output_no[71] O
*I *1894:Y O *D sg13g2_nand2b_1
*CAP
1 output_no[71] 0.000240566
2 *1894:Y 0.000240566
3 output_no[71] output_o[71] 0.000329818
4 output_no[71] output_o[72] 0
*RES
1 *1894:Y output_no[71] 22.5647 
*END

*D_NET *108 0.000804709
*CONN
*P output_no[72] O
*I *1896:Y O *D sg13g2_nand2_1
*CAP
1 output_no[72] 0.000358462
2 *1896:Y 0.000358462
3 output_no[72] output_no[73] 0
4 output_no[72] output_o[72] 4.00421e-05
5 output_no[72] output_o[73] 0
6 output_no[72] *1896:B 4.77425e-05
*RES
1 *1896:Y output_no[72] 24.017 
*END

*D_NET *109 0.000980575
*CONN
*P output_no[73] O
*I *1898:Y O *D sg13g2_nand2_1
*CAP
1 output_no[73] 0.000309977
2 *1898:Y 0.000309977
3 output_no[73] output_no[74] 0
4 output_no[73] output_o[73] 4.00421e-05
5 output_no[73] *1898:A 0.000272835
6 output_no[73] *1898:B 4.77425e-05
7 output_no[73] *1899:A 0
8 output_no[72] output_no[73] 0
*RES
1 *1898:Y output_no[73] 23.7698 
*END

*D_NET *110 0.000890945
*CONN
*P output_no[74] O
*I *1900:Y O *D sg13g2_nand2_1
*CAP
1 output_no[74] 0.000361651
2 *1900:Y 0.000361651
3 output_no[74] output_o[74] 4.00421e-05
4 output_no[74] *324:37 7.98582e-05
5 output_no[74] *337:14 4.77425e-05
6 output_no[73] output_no[74] 0
*RES
1 *1900:Y output_no[74] 24.017 
*END

*D_NET *111 0.000780455
*CONN
*P output_no[75] O
*I *1902:Y O *D sg13g2_nand2_1
*CAP
1 output_no[75] 0.000346335
2 *1902:Y 0.000346335
3 output_no[75] output_o[75] 4.00421e-05
4 output_no[75] output_o[76] 0
5 output_no[75] *1902:B 4.77425e-05
*RES
1 *1902:Y output_no[75] 23.7698 
*END

*D_NET *112 0.000962447
*CONN
*P output_no[76] O
*I *1904:Y O *D sg13g2_nand2_1
*CAP
1 output_no[76] 0.000292444
2 *1904:Y 0.000292444
3 output_no[76] output_o[76] 0.000329817
4 output_no[76] output_o[77] 0
5 output_no[76] *1904:B 4.77425e-05
*RES
1 *1904:Y output_no[76] 23.1312 
*END

*D_NET *113 0.000839704
*CONN
*P output_no[77] O
*I *1906:Y O *D sg13g2_nand2_1
*CAP
1 output_no[77] 0.000336031
2 *1906:Y 0.000336031
3 output_no[77] output_no[78] 0
4 output_no[77] output_o[77] 4.00421e-05
5 output_no[77] output_o[78] 0
6 output_no[77] *1906:A 7.98582e-05
7 output_no[77] *1906:B 4.77425e-05
*RES
1 *1906:Y output_no[77] 23.7698 
*END

*D_NET *114 0.000881577
*CONN
*P output_no[78] O
*I *1908:Y O *D sg13g2_nand2_1
*CAP
1 output_no[78] 0.00032522
2 *1908:Y 0.00032522
3 output_no[78] output_o[78] 4.00421e-05
4 output_no[78] output_o[79] 0
5 output_no[78] *332:64 0.000143351
6 output_no[78] *337:171 4.77425e-05
7 output_no[77] output_no[78] 0
*RES
1 *1908:Y output_no[78] 23.7698 
*END

*D_NET *115 0.00135274
*CONN
*P output_no[79] O
*I *1910:Y O *D sg13g2_nand2_1
*CAP
1 output_no[79] 0.000656347
2 *1910:Y 0.000656347
3 output_no[79] output_o[79] 4.00421e-05
4 output_no[79] output_o[80] 0
5 output_no[79] *1909:A 0
6 output_no[79] *1913:A 0
*RES
1 *1910:Y output_no[79] 25.9946 
*END

*D_NET *116 0.000854808
*CONN
*P output_no[7] O
*I *2030:Y O *D sg13g2_nand2b_1
*CAP
1 output_no[7] 0.000251466
2 *2030:Y 0.000251466
3 output_no[7] output_o[7] 0.000351877
*RES
1 *2030:Y output_no[7] 22.5647 
*END

*D_NET *117 0.000741708
*CONN
*P output_no[80] O
*I *1914:Y O *D sg13g2_nand2_1
*CAP
1 output_no[80] 0.000350833
2 *1914:Y 0.000350833
3 output_no[80] output_o[80] 4.00421e-05
4 output_no[80] output_o[81] 0
*RES
1 *1914:Y output_no[80] 23.7698 
*END

*D_NET *118 0.000929527
*CONN
*P output_no[81] O
*I *1916:Y O *D sg13g2_nand2_1
*CAP
1 output_no[81] 0.000299798
2 *1916:Y 0.000299798
3 output_no[81] output_o[81] 0.000329932
4 output_no[81] output_o[82] 0
*RES
1 *1916:Y output_no[81] 23.1312 
*END

*D_NET *119 0.000873123
*CONN
*P output_no[82] O
*I *1918:Y O *D sg13g2_nand2_1
*CAP
1 output_no[82] 0.000416483
2 *1918:Y 0.000416483
3 output_no[82] output_o[82] 4.01572e-05
4 output_no[82] output_o[83] 0
5 output_no[82] *311:90 0
*RES
1 *1918:Y output_no[82] 24.2642 
*END

*D_NET *120 0.000735119
*CONN
*P output_no[83] O
*I *1920:Y O *D sg13g2_nand2b_1
*CAP
1 output_no[83] 0.000275097
2 *1920:Y 0.000275097
3 output_no[83] output_o[83] 0.000169524
4 output_no[83] output_o[84] 0
5 output_no[83] *339:53 1.54008e-05
6 output_no[83] *340:46 0
*RES
1 *1920:Y output_no[83] 22.5647 
*END

*D_NET *121 0.000934163
*CONN
*P output_no[84] O
*I *1922:Y O *D sg13g2_nand2_1
*CAP
1 output_no[84] 0.000367397
2 *1922:Y 0.000367397
3 output_no[84] output_no[85] 0
4 output_no[84] output_o[84] 4.00421e-05
5 output_no[84] output_o[85] 0
6 output_no[84] *1922:B 4.77425e-05
7 output_no[84] *313:152 0.000111584
*RES
1 *1922:Y output_no[84] 24.2642 
*END

*D_NET *122 0.000815138
*CONN
*P output_no[85] O
*I *1924:Y O *D sg13g2_nand2_1
*CAP
1 output_no[85] 0.000363677
2 *1924:Y 0.000363677
3 output_no[85] output_no[86] 0
4 output_no[85] output_o[85] 4.00421e-05
5 output_no[85] output_o[86] 0
6 output_no[85] *1924:B 4.77425e-05
7 output_no[84] output_no[85] 0
*RES
1 *1924:Y output_no[85] 24.017 
*END

*D_NET *123 0.000813692
*CONN
*P output_no[86] O
*I *1926:Y O *D sg13g2_nand2_1
*CAP
1 output_no[86] 0.000362954
2 *1926:Y 0.000362954
3 output_no[86] output_o[86] 4.00421e-05
4 output_no[86] output_o[87] 0
5 output_no[86] *1926:B 4.77425e-05
6 output_no[86] *339:96 0
7 output_no[85] output_no[86] 0
*RES
1 *1926:Y output_no[86] 24.017 
*END

*D_NET *124 0.000775851
*CONN
*P output_no[87] O
*I *1928:Y O *D sg13g2_nand2b_1
*CAP
1 output_no[87] 0.000223075
2 *1928:Y 0.000223075
3 output_no[87] output_o[87] 0.000329701
*RES
1 *1928:Y output_no[87] 22.2145 
*END

*D_NET *125 0.000827057
*CONN
*P output_no[88] O
*I *1930:Y O *D sg13g2_nand2_1
*CAP
1 output_no[88] 0.000337724
2 *1930:Y 0.000337724
3 output_no[88] output_no[89] 0
4 output_no[88] output_o[88] 4.00421e-05
5 output_no[88] output_o[89] 0
6 output_no[88] *1930:B 0.000111568
*RES
1 *1930:Y output_no[88] 23.7698 
*END

*D_NET *126 0.000823518
*CONN
*P output_no[89] O
*I *1932:Y O *D sg13g2_nand2_1
*CAP
1 output_no[89] 0.000335954
2 *1932:Y 0.000335954
3 output_no[89] output_no[90] 0
4 output_no[89] output_o[89] 4.00421e-05
5 output_no[89] output_o[90] 0
6 output_no[89] *1932:B 0.000111568
7 output_no[88] output_no[89] 0
*RES
1 *1932:Y output_no[89] 23.7698 
*END

*D_NET *127 0.0243848
*CONN
*P output_no[8] O
*I *2032:Y O *D sg13g2_nand2_1
*CAP
1 output_no[8] 0.000846317
2 *2032:Y 0.000445606
3 *127:12 0.00622788
4 *127:10 0.00582717
5 output_no[8] output_o[8] 4.00421e-05
6 output_no[8] output_o[9] 0
7 output_no[8] *2024:B 4.77425e-05
8 *127:10 output_o[37] 0.000175648
9 *127:10 *1782:B 0
10 *127:10 *312:6 0
11 *127:10 *320:22 0.000112198
12 *127:12 *1741:A 0.000236057
13 *127:12 *1741:B 0.00034245
14 *127:12 *1829:B 0.000424666
15 *127:12 *268:36 0.00129929
16 *127:12 *268:47 0.000479729
17 *127:12 *271:24 0.000664043
18 *127:12 *272:27 0.00303746
19 *127:12 *273:8 0
20 *127:12 *276:10 0
21 *127:12 *282:20 0.000608768
22 *127:12 *283:46 0.000234224
23 *127:12 *287:85 0.0012986
24 *127:12 *289:10 0.000820515
25 *127:12 *289:12 0.000181608
26 *127:12 *289:16 0.00103479
27 *127:12 *290:10 0
28 *127:12 *294:10 0
29 *127:12 *296:28 0
30 *127:12 *319:10 0
31 *3:9 *127:12 0
*RES
1 *2032:Y *127:10 44.3775 
2 *127:10 *127:12 68.083 
3 *127:12 output_no[8] 28.5902 
*END

*D_NET *128 0.0008246
*CONN
*P output_no[90] O
*I *1934:Y O *D sg13g2_nand2_1
*CAP
1 output_no[90] 0.000336495
2 *1934:Y 0.000336495
3 output_no[90] output_no[91] 0
4 output_no[90] output_o[90] 4.00421e-05
5 output_no[90] output_o[91] 0
6 output_no[90] *1934:B 0.000111568
7 output_no[89] output_no[90] 0
*RES
1 *1934:Y output_no[90] 23.7698 
*END

*D_NET *129 0.000860375
*CONN
*P output_no[91] O
*I *1936:Y O *D sg13g2_nand2_1
*CAP
1 output_no[91] 0.000330511
2 *1936:Y 0.000330511
3 output_no[91] output_o[91] 4.00421e-05
4 output_no[91] output_o[92] 0
5 output_no[91] *1936:B 0.000111568
6 output_no[91] *326:68 4.77425e-05
7 output_no[91] *329:98 0
8 output_no[90] output_no[91] 0
*RES
1 *1936:Y output_no[91] 23.7698 
*END

*D_NET *130 0.000961687
*CONN
*P output_no[92] O
*I *1938:Y O *D sg13g2_nand2_1
*CAP
1 output_no[92] 0.000292217
2 *1938:Y 0.000292217
3 output_no[92] output_o[92] 0.000329511
4 output_no[92] output_o[93] 0
5 output_no[92] *1938:B 4.77425e-05
*RES
1 *1938:Y output_no[92] 23.1312 
*END

*D_NET *131 0.000836734
*CONN
*P output_no[93] O
*I *1940:Y O *D sg13g2_nand2_1
*CAP
1 output_no[93] 0.000334862
2 *1940:Y 0.000334862
3 output_no[93] output_no[94] 0
4 output_no[93] output_o[93] 4.00421e-05
5 output_no[93] output_o[94] 0
6 output_no[93] *1940:A 1.54008e-05
7 output_no[93] *1940:B 0.000111568
*RES
1 *1940:Y output_no[93] 23.7698 
*END

*D_NET *132 0.000885072
*CONN
*P output_no[94] O
*I *1942:Y O *D sg13g2_nand2_1
*CAP
1 output_no[94] 0.000326802
2 *1942:Y 0.000326802
3 output_no[94] output_o[94] 4.00421e-05
4 output_no[94] output_o[95] 0
5 output_no[94] *1942:A 7.98582e-05
6 output_no[94] *339:166 0.000111568
7 output_no[93] output_no[94] 0
*RES
1 *1942:Y output_no[94] 23.7698 
*END

*D_NET *133 0.00150828
*CONN
*P output_no[95] O
*I *1944:Y O *D sg13g2_nand2_1
*CAP
1 output_no[95] 0.000629793
2 *1944:Y 0.000629793
3 output_no[95] output_o[95] 4.00421e-05
4 output_no[95] output_o[96] 0
5 output_no[95] *1943:A 0
6 output_no[95] *1944:B 0
7 output_no[95] *341:14 0.000208656
*RES
1 *1944:Y output_no[95] 26.2006 
*END

*D_NET *134 0.000792117
*CONN
*P output_no[96] O
*I *1948:Y O *D sg13g2_nand2_1
*CAP
1 output_no[96] 0.000376038
2 *1948:Y 0.000376038
3 output_no[96] output_no[97] 0
4 output_no[96] output_o[96] 4.00421e-05
5 output_no[96] output_o[97] 0
6 output_no[96] *1981:B 0
*RES
1 *1948:Y output_no[96] 23.7882 
*END

*D_NET *135 0.000898936
*CONN
*P output_no[97] O
*I *1950:Y O *D sg13g2_nand2_1
*CAP
1 output_no[97] 0.0003416
2 *1950:Y 0.0003416
3 output_no[97] output_o[97] 4.00421e-05
4 output_no[97] *311:100 0
5 output_no[97] *341:31 0.000175693
6 output_no[96] output_no[97] 0
*RES
1 *1950:Y output_no[97] 23.7698 
*END

*D_NET *136 0.000859343
*CONN
*P output_no[98] O
*I *1952:Y O *D sg13g2_nand2_1
*CAP
1 output_no[98] 0.000314046
2 *1952:Y 0.000314046
3 output_no[98] output_o[98] 4.01572e-05
4 output_no[98] output_o[99] 0
5 output_no[98] *310:134 1.54008e-05
6 output_no[98] *341:35 0.000175693
*RES
1 *1952:Y output_no[98] 23.3784 
*END

*D_NET *137 0.00241883
*CONN
*P output_no[99] O
*I *1954:Y O *D sg13g2_nand2b_1
*CAP
1 output_no[99] 0.000672305
2 *1954:Y 0.000672305
3 output_no[99] output_o[100] 0
4 output_no[99] output_o[99] 4.01572e-05
5 output_no[99] *312:103 0.000240377
6 output_no[99] *312:116 0.000337333
7 output_no[99] *313:126 0.000456355
8 output_no[100] output_no[99] 0
*RES
1 *1954:Y output_no[99] 27.9207 
*END

*D_NET *138 0.0387844
*CONN
*P output_no[9] O
*I *2034:Y O *D sg13g2_nand2_1
*CAP
1 output_no[9] 0.000300041
2 *2034:Y 0
3 *138:18 0.000300041
4 *138:14 0.00530678
5 *138:12 0.00541515
6 *138:6 0.000108375
7 output_no[9] output_o[10] 0
8 output_no[9] output_o[9] 0.000459096
9 *138:12 *150:14 0
10 *138:12 *326:27 0
11 *138:14 *307:29 0
12 *138:14 *314:18 0.00866599
13 *138:14 *317:18 0
14 *138:14 *326:31 0
15 *43:14 *138:14 0.0182289
*RES
1 *2034:Y *138:6 40 
2 *138:6 *138:12 40.7519 
3 *138:12 *138:14 93.0502 
4 *138:14 *138:18 40 
5 *138:18 output_no[9] 23.0797 
*END

*D_NET *139 0.0154919
*CONN
*P output_o[0] O
*I *2015:Y O *D sg13g2_nor2_1
*CAP
1 output_o[0] 0.000116423
2 *2015:Y 0.000105152
3 *139:10 0.00217242
4 *139:8 0.00216115
5 *139:8 *2015:B 7.92265e-05
6 *139:8 *345:70 0
7 *139:8 *346:64 7.9225e-05
8 *139:10 *313:26 0.0031587
9 *139:10 *346:70 0
10 output_no[0] output_o[0] 4.01846e-05
11 output_no[2] *139:10 0
12 output_no[4] *139:10 0
13 output_no[5] *139:10 0
14 *11:20 output_o[0] 0
15 *11:20 *139:10 0.00577512
16 *45:22 *139:10 7.48209e-05
17 *72:10 *139:10 0.00172949
*RES
1 *2015:Y *139:8 40.9682 
2 *139:8 *139:10 34.4638 
3 *139:10 output_o[0] 21.3493 
*END

*D_NET *140 0.000513113
*CONN
*P output_o[100] O
*I *1955:Y O *D sg13g2_nor2_1
*CAP
1 output_o[100] 0.000236478
2 *1955:Y 0.000236478
3 output_no[100] output_o[100] 4.01572e-05
4 output_no[99] output_o[100] 0
*RES
1 *1955:Y output_o[100] 22.2145 
*END

*D_NET *141 0.00066805
*CONN
*P output_o[101] O
*I *1957:Y O *D sg13g2_nor2_1
*CAP
1 output_o[101] 0.000313946
2 *1957:Y 0.000313946
3 output_o[101] *1989:B 0
4 output_no[100] output_o[101] 0
5 output_no[101] output_o[101] 4.01572e-05
*RES
1 *1957:Y output_o[101] 22.6895 
*END

*D_NET *142 0.00102198
*CONN
*P output_o[102] O
*I *1959:Y O *D sg13g2_nor2_1
*CAP
1 output_o[102] 0.000115103
2 *1959:Y 0.000175466
3 *142:10 0.000290569
4 *142:10 *335:82 0
5 *142:10 *341:96 0.00012816
6 output_no[101] output_o[102] 0
7 output_no[102] output_o[102] 0.000169334
8 output_no[102] *142:10 0.000143351
*RES
1 *1959:Y *142:10 41.7819 
2 *142:10 output_o[102] 21.133 
*END

*D_NET *143 0.00136357
*CONN
*P output_o[103] O
*I *1961:Y O *D sg13g2_nor2_1
*CAP
1 output_o[103] 0.000196753
2 *1961:Y 6.69866e-05
3 *143:8 0.00026374
4 output_o[103] *1962:B 0.000143351
5 *143:8 *315:102 0
6 *143:8 *330:89 0.000235141
7 *143:8 *332:89 0.00012816
8 output_no[102] output_o[103] 0
9 output_no[103] output_o[103] 0.000329435
*RES
1 *1961:Y *143:8 41.0918 
2 *143:8 output_o[103] 22.2145 
*END

*D_NET *144 0.000584823
*CONN
*P output_o[104] O
*I *1963:Y O *D sg13g2_nor2_1
*CAP
1 output_o[104] 0.00027239
2 *1963:Y 0.00027239
3 output_o[104] *332:89 0
4 output_no[103] output_o[104] 0
5 output_no[104] output_o[104] 4.00421e-05
*RES
1 *1963:Y output_o[104] 22.5647 
*END

*D_NET *145 0.00123134
*CONN
*P output_o[105] O
*I *1965:Y O *D sg13g2_nor2_1
*CAP
1 output_o[105] 0.00010196
2 *1965:Y 0.000258333
3 *145:10 0.000360293
4 *145:10 *335:82 0
5 *145:10 *341:162 0.000341534
6 output_no[104] output_o[105] 0
7 output_no[105] output_o[105] 0.000169219
*RES
1 *1965:Y *145:10 42.7707 
2 *145:10 output_o[105] 21.133 
*END

*D_NET *146 0.00134567
*CONN
*P output_o[106] O
*I *1967:Y O *D sg13g2_nor2_1
*CAP
1 output_o[106] 0.000237915
2 *1967:Y 5.5297e-05
3 *146:8 0.000293212
4 output_o[106] *163:10 0.000143351
5 output_o[106] *344:125 0
6 *146:8 *330:89 0.000288184
7 *146:8 *331:108 0.000287672
8 output_no[105] output_o[106] 0
9 output_no[106] output_o[106] 4.00421e-05
*RES
1 *1967:Y *146:8 41.339 
2 *146:8 output_o[106] 22.2145 
*END

*D_NET *147 0.000625144
*CONN
*P output_o[107] O
*I *1969:Y O *D sg13g2_nor2_1
*CAP
1 output_o[107] 0.000244038
2 *1969:Y 0.000244038
3 output_no[107] output_o[107] 0.000137067
*RES
1 *1969:Y output_o[107] 22.2145 
*END

*D_NET *148 0.000839295
*CONN
*P output_o[108] O
*I *1971:Y O *D sg13g2_nor2_1
*CAP
1 output_o[108] 0.000295609
2 *1971:Y 0.000295609
3 output_o[108] *341:162 0
4 output_o[108] *341:189 0
5 output_no[108] output_o[108] 4.00421e-05
6 *19:10 output_o[108] 0.000208035
*RES
1 *1971:Y output_o[108] 22.8743 
*END

*D_NET *149 0.000780548
*CONN
*P output_o[109] O
*I *1973:Y O *D sg13g2_nor2_1
*CAP
1 output_o[109] 0.000305512
2 *1973:Y 0.000305512
3 output_no[108] output_o[109] 0
4 output_no[109] output_o[109] 0.000169524
*RES
1 *1973:Y output_o[109] 22.8119 
*END

*D_NET *150 0.0469442
*CONN
*P output_o[10] O
*I *2035:Y O *D sg13g2_nor2_1
*CAP
1 output_o[10] 0.000309965
2 *2035:Y 1.44027e-05
3 *150:22 0.000903524
4 *150:16 0.00393855
5 *150:14 0.00423592
6 *150:8 0.000905334
7 output_o[10] *2026:A 0
8 output_o[10] *211:8 0
9 *150:8 *304:52 7.58806e-05
10 *150:8 *325:12 7.4627e-05
11 output_no[10] output_o[10] 0.000265719
12 output_no[9] output_o[10] 0
13 *22:36 *150:22 0.000506443
14 *44:14 *150:16 0.0188652
15 *45:14 *150:16 0.0168487
16 *94:8 output_o[10] 0
17 *138:12 *150:14 0
*RES
1 *2035:Y *150:8 40.3502 
2 *150:8 *150:14 48.1061 
3 *150:14 *150:16 92.3086 
4 *150:16 *150:22 47.4572 
5 *150:22 output_o[10] 22.7101 
*END

*D_NET *151 0.00141538
*CONN
*P output_o[110] O
*I *1975:Y O *D sg13g2_nor2_1
*CAP
1 output_o[110] 0.000217087
2 *1975:Y 5.50512e-05
3 *151:8 0.000272138
4 output_o[110] *1974:A 7.92265e-05
5 *151:8 *2005:A 0.000287758
6 *151:8 *343:61 0.000288379
7 output_no[109] output_o[110] 0
8 output_no[110] output_o[110] 4.00421e-05
9 *21:10 output_o[110] 0.000175693
*RES
1 *1975:Y *151:8 41.339 
2 *151:8 output_o[110] 22.2145 
*END

*D_NET *152 0.000715552
*CONN
*P output_o[111] O
*I *1977:Y O *D sg13g2_nor2_1
*CAP
1 output_o[111] 0.000249837
2 *1977:Y 0.000249837
3 output_o[111] *1977:A 0.000175693
4 output_o[111] *332:97 0
5 output_no[111] output_o[111] 4.01846e-05
*RES
1 *1977:Y output_o[111] 22.2145 
*END

*D_NET *153 0.0165458
*CONN
*P output_o[112] O
*I *1981:Y O *D sg13g2_nor2_1
*CAP
1 output_o[112] 0.000663717
2 *1981:Y 0.000225244
3 *153:10 0.00339857
4 *153:8 0.0029601
5 output_o[112] *1982:A 0.000369743
6 *153:8 *1948:A 0
7 *153:8 *1981:B 0.000272834
8 *153:10 *158:18 0
9 *153:10 *159:8 0.00439258
10 *153:10 *312:116 0.000288014
11 *153:10 *316:72 0
12 *153:10 *322:83 0.000234727
13 *153:10 *324:73 0.000555408
14 *153:10 *332:118 0.000394652
15 *153:10 *343:8 0
16 *153:10 *343:34 0
17 *153:10 *343:47 0.00119467
18 *153:10 *344:27 0.000447533
19 *153:10 *344:70 0.000181192
20 *153:10 *344:83 0
21 *153:10 *344:100 0.000926631
22 output_no[111] output_o[112] 0
23 output_no[112] output_o[112] 4.01846e-05
24 *8:112 *153:10 0
*RES
1 *1981:Y *153:8 42.0497 
2 *153:8 *153:10 34.711 
3 *153:10 output_o[112] 26.6126 
*END

*D_NET *154 0.0164314
*CONN
*P output_o[113] O
*I *1983:Y O *D sg13g2_nor2_1
*CAP
1 output_o[113] 0.000448905
2 *1983:Y 0.000248996
3 *154:16 0.00258021
4 *154:10 0.0023803
5 output_o[113] *1984:A 0.000240377
6 *154:10 *316:72 0
7 *154:10 *324:63 0.000579067
8 *154:16 *316:72 0.00149339
9 *154:16 *324:63 0
10 *154:16 *341:124 0.00039332
11 *154:16 *343:8 0.000926217
12 *154:16 *343:34 0
13 *154:16 *344:70 0
14 *154:16 *344:83 0.000608941
15 *154:16 *344:100 0
16 output_no[112] output_o[113] 0
17 output_no[113] output_o[113] 0.000169869
18 *35:8 *154:16 1.55212e-05
19 *35:10 *154:16 0.00355625
20 *36:8 *154:16 0.00278999
*RES
1 *1983:Y *154:10 42.987 
2 *154:10 *154:16 33.5574 
3 *154:16 output_o[113] 24.1612 
*END

*D_NET *155 0.0201309
*CONN
*P output_o[114] O
*I *1985:Y O *D sg13g2_nor2_1
*CAP
1 output_o[114] 0.000854458
2 *1985:Y 0.000534425
3 *155:18 0.00282157
4 *155:12 0.00250154
5 output_o[114] *1984:A 0
6 output_o[114] *2011:B 4.77425e-05
7 output_o[114] *158:24 0
8 output_o[114] *312:132 0
9 *155:12 *1985:B 4.77425e-05
10 *155:12 *310:126 0.000691221
11 *155:12 *312:126 0.000433567
12 *155:12 *341:45 0
13 *155:18 *162:10 0
14 *155:18 *306:125 0.00360097
15 *155:18 *312:126 0.00282103
16 *155:18 *312:132 0.00268075
17 *155:18 *320:88 0.00279843
18 output_no[113] output_o[114] 0
19 output_no[114] output_o[114] 0.000297475
*RES
1 *1985:Y *155:12 46.0564 
2 *155:12 *155:18 34.8861 
3 *155:18 output_o[114] 27.0229 
*END

*D_NET *156 0.00120797
*CONN
*P output_o[115] O
*I *1987:Y O *D sg13g2_nor2_1
*CAP
1 output_o[115] 0.000103945
2 *1987:Y 0.000162367
3 *156:10 0.000266313
4 *156:10 *166:18 0.000143351
5 *156:10 *169:12 0.00018128
6 output_no[114] output_o[115] 0
7 output_no[115] output_o[115] 0.000169524
8 *41:10 *156:10 0.000181192
*RES
1 *1987:Y *156:10 42.0291 
2 *156:10 output_o[115] 21.133 
*END

*D_NET *157 0.0150963
*CONN
*P output_o[116] O
*I *1989:Y O *D sg13g2_nor2_1
*CAP
1 output_o[116] 0.000637664
2 *1989:Y 0.000289968
3 *157:10 0.00303943
4 *157:8 0.00269173
5 output_o[116] *1990:A 0
6 output_o[116] *1990:B 4.77425e-05
7 output_o[116] *2010:A 8.00842e-05
8 *157:8 *1989:B 4.77425e-05
9 *157:8 *314:123 0
10 *157:8 *344:70 0.000225168
11 *157:10 *159:8 0
12 *157:10 *164:14 0
13 *157:10 *308:90 0
14 output_no[115] output_o[116] 0
15 output_no[116] output_o[116] 0.000169409
16 *8:112 *157:10 0.0014084
17 *9:9 *157:10 0
18 *9:11 *157:10 0
19 *10:28 *157:10 0.00131158
20 *34:12 *157:10 0.00514736
*RES
1 *1989:Y *157:8 42.6986 
2 *157:8 *157:10 33.475 
3 *157:10 output_o[116] 25.6753 
*END

*D_NET *158 0.0161242
*CONN
*P output_o[117] O
*I *1991:Y O *D sg13g2_nor2_1
*CAP
1 output_o[117] 0.000793164
2 *1991:Y 0.000125233
3 *158:24 0.00126055
4 *158:18 0.00106656
5 *158:14 0.00196239
6 *158:8 0.00148846
7 output_o[117] output_o[124] 0.000875173
8 output_o[117] *169:12 0
9 *158:8 *1957:A 0
10 *158:14 *320:107 0.000446352
11 *158:14 *321:98 0
12 *158:14 *322:71 0.0016719
13 *158:14 *324:63 0
14 *158:14 *327:90 0.0007122
15 *158:14 *327:109 0.00115524
16 *158:14 *331:100 0
17 *158:14 *341:89 0.000181192
18 *158:14 *341:138 0.000340877
19 *158:14 *342:141 0
20 *158:14 *342:156 0.00027233
21 *158:14 *344:115 0
22 *158:18 *159:8 0
23 *158:18 *328:118 0.000340837
24 *158:18 *332:118 0.000394237
25 *158:18 *343:47 0.000447152
26 *158:24 *2011:A 0.000240377
27 *158:24 *169:8 0
28 output_no[102] *158:8 0
29 output_no[113] *158:24 0
30 output_no[117] output_o[117] 7.23838e-05
31 output_no[125] output_o[117] 7.52149e-05
32 output_o[114] *158:24 0
33 *35:10 *158:14 0
34 *36:8 *158:18 0.00220241
35 *153:10 *158:18 0
*RES
1 *1991:Y *158:8 40.9682 
2 *158:8 *158:14 38.0662 
3 *158:14 *158:18 30.2382 
4 *158:18 *158:24 44.2127 
5 *158:24 output_o[117] 28.4975 
*END

*D_NET *159 0.0164534
*CONN
*P output_o[118] O
*I *1993:Y O *D sg13g2_nor2_1
*CAP
1 output_o[118] 0.000740214
2 *1993:Y 0
3 *159:8 0.0025801
4 *159:6 0.00183989
5 output_o[118] output_o[119] 0
6 output_o[118] *319:170 0.00035298
7 output_o[118] *344:201 0.0001122
8 *159:8 *328:118 0
9 output_no[117] output_o[118] 0
10 output_no[118] output_o[118] 4.00421e-05
11 *8:112 *159:8 0.000661385
12 *32:10 output_o[118] 0
13 *34:12 *159:8 0.00573402
14 *36:8 *159:8 0
15 *153:10 *159:8 0.00439258
16 *157:10 *159:8 0
17 *158:18 *159:8 0
*RES
1 *1993:Y *159:6 40 
2 *159:6 *159:8 32.7334 
3 *159:8 output_o[118] 28.0237 
*END

*D_NET *160 0.000771963
*CONN
*P output_o[119] O
*I *1995:Y O *D sg13g2_nor2_1
*CAP
1 output_o[119] 0.000342202
2 *1995:Y 0.000342202
3 output_o[119] *1995:B 4.75166e-05
4 output_no[118] output_o[119] 0
5 output_no[119] output_o[119] 4.00421e-05
6 output_o[118] output_o[119] 0
*RES
1 *1995:Y output_o[119] 23.8007 
*END

*D_NET *161 0.000605854
*CONN
*P output_o[11] O
*I *2037:Y O *D sg13g2_nor2_1
*CAP
1 output_o[11] 0.000235592
2 *2037:Y 0.000235592
3 output_o[11] *2037:B 1.54008e-05
4 output_o[11] *346:72 7.92265e-05
5 output_no[11] output_o[11] 4.00421e-05
*RES
1 *2037:Y output_o[11] 21.2905 
*END

*D_NET *162 0.0157999
*CONN
*P output_o[120] O
*I *1997:Y O *D sg13g2_nor2_1
*CAP
1 output_o[120] 0.00068822
2 *1997:Y 0.000478155
3 *162:10 0.00318779
4 *162:8 0.00297773
5 *162:8 *320:92 0
6 *162:8 *321:98 1.54008e-05
7 *162:8 *322:77 0.000208035
8 *162:8 *344:115 1.54008e-05
9 *162:10 *165:10 0
10 *162:10 *306:125 0.00338676
11 *162:10 *308:90 0.0040273
12 *162:10 *312:132 0
13 *162:10 *319:162 0
14 output_no[120] output_o[120] 0.000815108
15 *9:9 *162:8 0
16 *155:18 *162:10 0
*RES
1 *1997:Y *162:8 44.2127 
2 *162:8 *162:10 33.9694 
3 *162:10 output_o[120] 26.9731 
*END

*D_NET *163 0.0092229
*CONN
*P output_o[121] O
*I *1999:Y O *D sg13g2_nor2_1
*CAP
1 output_o[121] 0.000266322
2 *1999:Y 0.000187637
3 *163:20 0.00249628
4 *163:14 0.00222995
5 *163:10 0.000187637
6 output_o[121] output_o[124] 0.00119387
7 *163:10 *2001:A 0.000266405
8 *163:10 *325:66 0.000288173
9 *163:10 *341:162 0.000554579
10 *163:10 *344:125 0.000143351
11 *163:20 *310:154 0
12 *163:20 *328:112 0
13 *163:20 *329:62 0
14 *163:20 *333:75 0
15 output_no[121] output_o[121] 7.23838e-05
16 output_no[125] output_o[121] 0.00119296
17 output_o[106] *163:10 0.000143351
*RES
1 *1999:Y *163:10 43.5432 
2 *163:10 *163:14 40 
3 *163:14 *163:20 46.2856 
4 *163:20 output_o[121] 46.0255 
*END

*D_NET *164 0.0111226
*CONN
*P output_o[122] O
*I *2001:Y O *D sg13g2_nor2_1
*CAP
1 output_o[122] 0.0007509
2 *2001:Y 0.000399013
3 *164:14 0.00390231
4 *164:8 0.00355042
5 *164:8 *341:162 1.54008e-05
6 *164:14 *165:10 0.00246448
7 *164:14 *308:90 0
8 output_no[121] output_o[122] 0
9 output_no[122] output_o[122] 4.00421e-05
10 *34:12 *164:14 0
11 *36:8 *164:14 0
12 *157:10 *164:14 0
*RES
1 *2001:Y *164:8 43.3475 
2 *164:8 *164:14 31.6725 
3 *164:14 output_o[122] 24.7997 
*END

*D_NET *165 0.0121549
*CONN
*P output_o[123] O
*I *2003:Y O *D sg13g2_nor2_1
*CAP
1 output_o[123] 0.000624699
2 *2003:Y 0.000164803
3 *165:10 0.00344561
4 *165:8 0.00298571
5 *165:10 *308:90 0.00194453
6 output_no[122] output_o[123] 0
7 output_no[123] output_o[123] 0.000525103
8 *36:8 *165:10 0
9 *162:10 *165:10 0
10 *164:14 *165:10 0.00246448
*RES
1 *2003:Y *165:8 41.4008 
2 *165:8 *165:10 31.003 
3 *165:10 output_o[123] 26.5405 
*END

*D_NET *166 0.00994388
*CONN
*P output_o[124] O
*I *2005:Y O *D sg13g2_nor2_1
*CAP
1 output_o[124] 0.00169879
2 *2005:Y 0.000357654
3 *166:18 0.00186604
4 *166:12 0.000524905
5 *166:12 *330:112 0.00146293
6 *166:12 *332:101 0.00146087
7 *166:12 *344:154 4.75166e-05
8 output_no[115] *166:18 0.000272746
9 output_no[124] output_o[124] 4.00421e-05
10 output_no[125] output_o[124] 0
11 output_o[117] output_o[124] 0.000875173
12 output_o[121] output_o[124] 0.00119387
13 *156:10 *166:18 0.000143351
*RES
1 *2005:Y *166:12 47.4469 
2 *166:12 *166:18 41.8334 
3 *166:18 output_o[124] 39.8996 
*END

*D_NET *167 0.00983897
*CONN
*P output_o[125] O
*I *2007:Y O *D sg13g2_nor2_1
*CAP
1 output_o[125] 0.00166015
2 *2007:Y 0
3 *167:6 0.00166015
4 output_o[125] output_o[126] 0
5 output_no[124] output_o[125] 0
6 output_no[125] output_o[125] 0.000104956
7 output_no[126] output_o[125] 0
8 *35:10 output_o[125] 0.00297564
9 *36:8 output_o[125] 0.00343807
10 *37:12 output_o[125] 0
*RES
1 *2007:Y *167:6 40 
2 *167:6 output_o[125] 46.5122 
*END

*D_NET *168 0.00702359
*CONN
*P output_o[126] O
*I *2009:Y O *D sg13g2_nor2_1
*CAP
1 output_o[126] 0.00131379
2 *2009:Y 0
3 *168:6 0.00131379
4 output_o[126] *1995:B 0.000235153
5 output_o[126] *344:201 7.51285e-05
6 output_no[125] output_o[126] 0
7 output_no[126] output_o[126] 0.00408574
8 output_o[125] output_o[126] 0
9 *41:10 output_o[126] 0
*RES
1 *2009:Y *168:6 40 
2 *168:6 output_o[126] 39.6215 
*END

*D_NET *169 0.0111759
*CONN
*P output_o[127] O
*I *2011:Y O *D sg13g2_nor2_1
*CAP
1 output_o[127] 7.6054e-05
2 *2011:Y 0.000152331
3 *169:12 0.00281295
4 *169:8 0.00288923
5 *169:8 *2011:A 0.000175693
6 output_no[125] *169:12 0.00396372
7 output_no[126] output_o[127] 0
8 output_no[127] output_o[127] 0.000137412
9 output_o[117] *169:12 0
10 *29:10 *169:12 0.000181443
11 *32:10 *169:12 0.000605775
12 *41:10 *169:12 0
13 *156:10 *169:12 0.00018128
14 *158:24 *169:8 0
*RES
1 *2011:Y *169:8 41.4008 
2 *169:8 *169:12 49.767 
3 *169:12 output_o[127] 0.9167 
*END

*D_NET *170 0.0295858
*CONN
*P output_o[12] O
*I *2039:Y O *D sg13g2_nor2_1
*CAP
1 output_o[12] 0.000213683
2 *2039:Y 0
3 *170:22 0.000681425
4 *170:16 0.0037539
5 *170:14 0.00328616
6 *170:12 0.000866911
7 *170:6 0.000866911
8 *170:12 *308:29 0.00348075
9 *170:12 *319:10 0.000498914
10 *170:12 *319:34 0.0029792
11 output_no[11] output_o[12] 0
12 output_no[12] output_o[12] 0.000329932
13 *42:14 *170:16 0.0120266
14 *42:20 *170:22 0.000601463
*RES
1 *2039:Y *170:6 40 
2 *170:6 *170:12 38.0044 
3 *170:12 *170:14 20 
4 *170:14 *170:16 55.723 
5 *170:16 *170:22 44.8616 
6 *170:22 output_o[12] 22.2145 
*END

*D_NET *171 0.0311754
*CONN
*P output_o[13] O
*I *2041:Y O *D sg13g2_nor2_1
*CAP
1 output_o[13] 6.19714e-05
2 *2041:Y 2.60565e-05
3 *171:22 0.000446173
4 *171:16 0.00567453
5 *171:14 0.00552011
6 *171:8 0.000255837
7 *171:8 *2041:A 4.77425e-05
8 *171:8 *2041:B 4.77425e-05
9 *171:14 *189:12 0
10 *171:16 *172:12 0.0187196
11 *171:16 *271:18 0
12 *171:22 *172:18 0
13 output_no[12] output_o[13] 0
14 output_no[13] output_o[13] 0.000104868
15 *22:14 *171:16 0
16 *22:30 *171:16 0
17 *42:20 *171:22 0
18 *43:12 *171:14 0
19 *43:14 *171:16 0
20 *43:20 *171:22 0.000270712
*RES
1 *2041:Y *171:8 40.3193 
2 *171:8 *171:14 41.8334 
3 *171:14 *171:16 88.6006 
4 *171:16 *171:22 43.7801 
5 *171:22 output_o[13] 20.7004 
*END

*D_NET *172 0.0329053
*CONN
*P output_o[14] O
*I *2043:Y O *D sg13g2_nor2_1
*CAP
1 output_o[14] 0.000256105
2 *2043:Y 0
3 *172:18 0.000416485
4 *172:12 0.00653543
5 *172:10 0.00637505
6 *172:6 0
7 *172:12 *308:37 0
8 *172:12 *308:39 0
9 *172:12 *310:70 0
10 *172:12 *326:31 0
11 output_no[13] output_o[14] 0
12 output_no[14] output_o[14] 0.00039457
13 *43:14 *172:12 0
14 *44:20 *172:18 0.000208037
15 *171:16 *172:12 0.0187196
16 *171:22 *172:18 0
*RES
1 *2043:Y *172:6 40 
2 *172:6 *172:10 40 
3 *172:10 *172:12 92.5558 
4 *172:12 *172:18 41.6171 
5 *172:18 output_o[14] 22.6471 
*END

*D_NET *173 0.0306911
*CONN
*P output_o[15] O
*I *2045:Y O *D sg13g2_nor2_1
*CAP
1 output_o[15] 5.33727e-05
2 *2045:Y 0
3 *173:20 0.000957895
4 *173:14 0.00505532
5 *173:12 0.0049527
6 *173:6 0.000801898
7 *173:12 *307:41 1.4965e-05
8 *173:12 *307:50 0.000689708
9 output_no[14] output_o[15] 0
10 output_no[15] output_o[15] 4.01846e-05
11 *22:14 *173:12 0
12 *44:20 *173:20 0
13 *45:12 *173:12 0
14 *45:14 *173:14 0.0168457
15 *45:22 *173:20 0.00127943
16 *61:18 output_o[15] 0
*RES
1 *2045:Y *173:6 40 
2 *173:6 *173:12 47.8898 
3 *173:12 *173:14 75.499 
4 *173:14 *173:20 49.8365 
5 *173:20 output_o[15] 20.618 
*END

*D_NET *174 0.000832342
*CONN
*P output_o[16] O
*I *2047:Y O *D sg13g2_nor2_1
*CAP
1 output_o[16] 0.000315318
2 *2047:Y 0.000315318
3 output_o[16] output_o[17] 0
4 output_o[16] *2047:A 0
5 output_o[16] *345:70 0
6 output_no[15] output_o[16] 0
7 output_no[16] output_o[16] 0.000201705
*RES
1 *2047:Y output_o[16] 23.0591 
*END

*D_NET *175 0.00069777
*CONN
*P output_o[17] O
*I *2049:Y O *D sg13g2_nor2_1
*CAP
1 output_o[17] 0.000321164
2 *2049:Y 0.000321164
3 output_o[17] *2049:A 1.54008e-05
4 output_no[17] output_o[17] 4.00421e-05
5 output_o[16] output_o[17] 0
*RES
1 *2049:Y output_o[17] 23.5535 
*END

*D_NET *176 0.00171659
*CONN
*P output_o[18] O
*I *2051:Y O *D sg13g2_nor2_1
*CAP
1 output_o[18] 0.000557481
2 *2051:Y 0.000557481
3 output_o[18] *2051:A 7.98942e-05
4 output_o[18] *2052:B 0.000240481
5 output_o[18] *2052:A 1.53561e-05
6 output_no[17] output_o[18] 0
7 output_no[18] output_o[18] 0.000265899
*RES
1 *2051:Y output_o[18] 25.7474 
*END

*D_NET *177 0.000741706
*CONN
*P output_o[19] O
*I *2053:Y O *D sg13g2_nor2_1
*CAP
1 output_o[19] 0.000343131
2 *2053:Y 0.000343131
3 output_o[19] *2053:A 1.54008e-05
4 output_no[18] output_o[19] 0
5 output_no[19] output_o[19] 4.00421e-05
*RES
1 *2053:Y output_o[19] 23.8007 
*END

*D_NET *178 0.0500629
*CONN
*P output_o[1] O
*I *2017:Y O *D sg13g2_nor2_1
*CAP
1 output_o[1] 0.0012549
2 *2017:Y 0.00137174
3 *178:10 0.00756342
4 *178:8 0.00630852
5 *178:6 0.00137174
6 output_o[1] output_o[2] 0
7 *178:6 *2017:B 4.77425e-05
8 *178:6 *2041:A 0
9 *178:6 *266:10 0
10 *178:6 *309:27 0.00030487
11 *178:10 *222:12 0.0198062
12 *178:10 *266:14 0
13 *178:10 *313:47 0.0117026
14 output_no[1] output_o[1] 0.000331095
15 *11:20 output_o[1] 0
*RES
1 *2017:Y *178:6 31.5669 
2 *178:6 *178:8 20 
3 *178:8 *178:10 114.062 
4 *178:10 output_o[1] 34.3273 
*END

*D_NET *179 0.000880198
*CONN
*P output_o[20] O
*I *2055:X O *D sg13g2_and2_1
*CAP
1 output_o[20] 0.000203572
2 *2055:X 0.000203572
3 output_no[20] output_o[20] 0.000329701
4 *46:10 output_o[20] 0.000143351
*RES
1 *2055:X output_o[20] 22.2145 
*END

*D_NET *180 0.00061301
*CONN
*P output_o[21] O
*I *2057:X O *D sg13g2_and2_1
*CAP
1 output_o[21] 0.000286484
2 *2057:X 0.000286484
3 output_no[21] output_o[21] 4.00421e-05
*RES
1 *2057:X output_o[21] 22.5647 
*END

*D_NET *181 0.00075781
*CONN
*P output_o[22] O
*I *2059:X O *D sg13g2_and2_1
*CAP
1 output_o[22] 0.00027803
2 *2059:X 0.00027803
3 output_o[22] *2060:B 0
4 output_no[22] output_o[22] 0.00020175
*RES
1 *2059:X output_o[22] 22.5647 
*END

*D_NET *182 0.0007385
*CONN
*P output_o[23] O
*I *2061:Y O *D sg13g2_nor2_1
*CAP
1 output_o[23] 0.000349229
2 *2061:Y 0.000349229
3 output_o[23] *345:64 0
4 output_no[23] output_o[23] 4.00421e-05
*RES
1 *2061:Y output_o[23] 22.8855 
*END

*D_NET *183 0.000828012
*CONN
*P output_o[24] O
*I *2063:Y O *D sg13g2_nor2_1
*CAP
1 output_o[24] 0.000249063
2 *2063:Y 0.000249063
3 output_o[24] *315:8 0
4 output_no[24] output_o[24] 0.000329886
*RES
1 *2063:Y output_o[24] 22.5647 
*END

*D_NET *184 0.0012748
*CONN
*P output_o[25] O
*I *2065:Y O *D sg13g2_nor2_1
*CAP
1 output_o[25] 0.000104828
2 *2065:Y 0.000276893
3 *184:10 0.000381721
4 *184:10 *313:16 0
5 *184:10 *345:56 0.000341949
6 output_no[25] output_o[25] 0.000169409
7 output_no[25] *184:10 0
*RES
1 *2065:Y *184:10 42.7707 
2 *184:10 output_o[25] 21.133 
*END

*D_NET *185 0.000814532
*CONN
*P output_o[26] O
*I *2067:Y O *D sg13g2_nor2_1
*CAP
1 output_o[26] 0.000387245
2 *2067:Y 0.000387245
3 output_o[26] output_o[27] 0
4 output_o[26] *301:28 0
5 output_no[25] output_o[26] 0
6 output_no[26] output_o[26] 4.00421e-05
*RES
1 *2067:Y output_o[26] 24.2951 
*END

*D_NET *186 0.000776293
*CONN
*P output_o[27] O
*I *2069:Y O *D sg13g2_nor2_1
*CAP
1 output_o[27] 0.000368125
2 *2069:Y 0.000368125
3 output_o[27] output_o[28] 0
4 output_o[27] *313:16 0
5 output_no[27] output_o[27] 4.00421e-05
6 output_o[26] output_o[27] 0
*RES
1 *2069:Y output_o[27] 23.7663 
*END

*D_NET *187 0.000692965
*CONN
*P output_o[28] O
*I *1743:Y O *D sg13g2_nor2_1
*CAP
1 output_o[28] 0.000326461
2 *1743:Y 0.000326461
3 output_no[27] output_o[28] 0
4 output_no[28] output_o[28] 4.00421e-05
5 output_o[27] output_o[28] 0
*RES
1 *1743:Y output_o[28] 23.5535 
*END

*D_NET *188 0.00194898
*CONN
*P output_o[29] O
*I *1747:Y O *D sg13g2_nor2_1
*CAP
1 output_o[29] 0.000737234
2 *1747:Y 0.000737234
3 output_o[29] *1747:B 1.54008e-05
4 output_o[29] *1748:B 0
5 output_o[29] *270:28 0
6 output_o[29] *274:40 0
7 output_no[28] output_o[29] 0
8 output_no[29] output_o[29] 0.000459108
*RES
1 *1747:Y output_o[29] 26.9113 
*END

*D_NET *189 0.0340435
*CONN
*P output_o[2] O
*I *2019:Y O *D sg13g2_nor2_1
*CAP
1 output_o[2] 0.000295663
2 *2019:Y 1.72192e-05
3 *189:20 0.00108429
4 *189:16 0.00790202
5 *189:14 0.00711338
6 *189:12 0.000996467
7 *189:8 0.00101369
8 output_o[2] output_o[3] 0
9 *189:8 *305:52 7.52149e-05
10 *189:8 *346:18 7.33225e-05
11 *189:12 *310:53 0
12 *189:12 *310:61 0
13 *189:16 *317:37 0.0151063
14 output_no[1] output_o[2] 0
15 output_no[2] output_o[2] 4.01846e-05
16 output_o[1] output_o[2] 0
17 *43:12 *189:12 0.000143656
18 *44:14 *189:16 0
19 *50:16 output_o[2] 0.00018211
20 *171:14 *189:12 0
*RES
1 *2019:Y *189:8 40.3502 
2 *189:8 *189:12 30.0528 
3 *189:12 *189:14 20 
4 *189:14 *189:16 113.568 
5 *189:16 *189:20 30.4854 
6 *189:20 output_o[2] 43.2754 
*END

*D_NET *190 0.000768554
*CONN
*P output_o[30] O
*I *1751:Y O *D sg13g2_nor2_1
*CAP
1 output_o[30] 0.000364256
2 *1751:Y 0.000364256
3 output_o[30] *1751:B 0
4 output_o[30] *278:24 0
5 output_no[29] output_o[30] 0
6 output_no[30] output_o[30] 4.00421e-05
*RES
1 *1751:Y output_o[30] 24.0479 
*END

*D_NET *191 0.00230459
*CONN
*P output_o[31] O
*I *1756:Y O *D sg13g2_nor2_1
*CAP
1 output_o[31] 0.000938969
2 *1756:Y 0.000938969
3 output_o[31] *1752:B 0
4 output_o[31] *1756:A 0
5 output_o[31] *1765:A 0
6 output_o[31] *278:24 0
7 output_o[31] *283:14 0
8 output_no[30] output_o[31] 0
9 output_no[31] output_o[31] 0.000426651
*RES
1 *1756:Y output_o[31] 27.8448 
*END

*D_NET *192 0.000837379
*CONN
*P output_o[32] O
*I *1765:Y O *D sg13g2_nor2_1
*CAP
1 output_o[32] 0.000253862
2 *1765:Y 0.000253862
3 output_no[31] output_o[32] 0
4 output_no[32] output_o[32] 0.000329656
*RES
1 *1765:Y output_o[32] 22.5647 
*END

*D_NET *193 0.000781853
*CONN
*P output_o[33] O
*I *1769:Y O *D sg13g2_nor2_1
*CAP
1 output_o[33] 0.000370905
2 *1769:Y 0.000370905
3 output_no[32] output_o[33] 0
4 output_no[33] output_o[33] 4.00421e-05
*RES
1 *1769:Y output_o[33] 24.1509 
*END

*D_NET *194 0.00291624
*CONN
*P output_o[34] O
*I *1773:Y O *D sg13g2_nor2_1
*CAP
1 output_o[34] 0.00139806
2 *1773:Y 0.00139806
3 output_o[34] *288:101 0
4 output_o[34] *288:110 0
5 output_o[34] *292:42 8.00842e-05
6 output_no[33] output_o[34] 0
7 output_no[34] output_o[34] 4.00421e-05
*RES
1 *1773:Y output_o[34] 32.5557 
*END

*D_NET *195 0.001789
*CONN
*P output_o[35] O
*I *1776:Y O *D sg13g2_nor2_1
*CAP
1 output_o[35] 0.000104828
2 *1776:Y 0.000181951
3 *195:10 0.000286778
4 *195:10 *270:26 0.000395396
5 *195:10 *293:22 7.91813e-05
6 *195:10 *301:22 0.000395811
7 output_no[34] *195:10 0.000175648
8 output_no[35] output_o[35] 0.000169409
*RES
1 *1776:Y *195:10 43.0179 
2 *195:10 output_o[35] 21.133 
*END

*D_NET *196 0.00171577
*CONN
*P output_o[36] O
*I *1779:X O *D sg13g2_and2_1
*CAP
1 output_o[36] 0.000837862
2 *1779:X 0.000837862
3 output_o[36] *1780:B 0
4 output_o[36] *1782:A 0
5 output_o[36] *312:14 0
6 output_o[36] *319:8 0
7 output_no[36] output_o[36] 4.00421e-05
*RES
1 *1779:X output_o[36] 28.2915 
*END

*D_NET *197 0.00159993
*CONN
*P output_o[37] O
*I *1782:X O *D sg13g2_and2_1
*CAP
1 output_o[37] 0.000459165
2 *1782:X 0.000459165
3 output_o[37] *287:60 0.00014391
4 output_o[37] *320:22 0
5 output_o[37] *345:54 0
6 output_no[37] output_o[37] 0.000362043
7 *127:10 output_o[37] 0.000175648
*RES
1 *1782:X output_o[37] 24.7586 
*END

*D_NET *198 0.00225814
*CONN
*P output_o[38] O
*I *1785:X O *D sg13g2_and2_1
*CAP
1 output_o[38] 0.000658656
2 *1785:X 0.000658656
3 output_o[38] *1786:A 0.00014391
4 output_o[38] *1786:B 0
5 output_o[38] *326:10 0.000627513
6 output_no[38] output_o[38] 0.000169409
*RES
1 *1785:X output_o[38] 26.7053 
*END

*D_NET *199 0.000890589
*CONN
*P output_o[39] O
*I *1788:Y O *D sg13g2_nor2_1
*CAP
1 output_o[39] 0.000425202
2 *1788:Y 0.000425202
3 output_no[39] output_o[39] 4.01846e-05
*RES
1 *1788:Y output_o[39] 24.5423 
*END

*D_NET *200 0.00247281
*CONN
*P output_o[3] O
*I *2021:Y O *D sg13g2_nor2_1
*CAP
1 output_o[3] 0.000222228
2 *2021:Y 0.000827516
3 *200:8 0.00104974
4 *200:8 *2021:B 7.53228e-05
5 output_no[3] output_o[3] 0.000169754
6 output_o[2] output_o[3] 0
7 *11:20 *200:8 0
8 *50:16 *200:8 0
9 *105:8 *200:8 0.000128248
*RES
1 *2021:Y *200:8 47.519 
2 *200:8 output_o[3] 22.2145 
*END

*D_NET *201 0.00171804
*CONN
*P output_o[40] O
*I *1792:Y O *D sg13g2_nor2_1
*CAP
1 output_o[40] 9.74818e-05
2 *1792:Y 0.000193271
3 *201:10 0.000290752
4 *201:10 *270:26 0.000395396
5 *201:10 *301:22 0.000395811
6 output_no[39] output_o[40] 0
7 output_no[39] *201:10 0.000175693
8 output_no[40] output_o[40] 0.000169639
*RES
1 *1792:Y *201:10 43.0179 
2 *201:10 output_o[40] 21.133 
*END

*D_NET *202 0.000821814
*CONN
*P output_o[41] O
*I *1795:Y O *D sg13g2_nor2_1
*CAP
1 output_o[41] 0.000245942
2 *1795:Y 0.000245942
3 output_no[40] output_o[41] 0
4 output_no[41] output_o[41] 0.000329931
*RES
1 *1795:Y output_o[41] 22.5647 
*END

*D_NET *203 0.00134316
*CONN
*P output_o[42] O
*I *1798:Y O *D sg13g2_nor2_1
*CAP
1 output_o[42] 9.99392e-05
2 *1798:Y 0.000297242
3 *203:10 0.000397182
4 *203:10 *270:26 0.000128248
5 *203:10 *278:20 0
6 *203:10 *288:47 0
7 *203:10 *288:53 0
8 *203:10 *301:18 0.000175693
9 *203:10 *301:22 7.52149e-05
10 output_no[41] output_o[42] 0
11 output_no[41] *203:10 0
12 output_no[42] output_o[42] 0.000169639
*RES
1 *1798:Y *203:10 42.7707 
2 *203:10 output_o[42] 21.133 
*END

*D_NET *204 0.000823504
*CONN
*P output_o[43] O
*I *1801:Y O *D sg13g2_nor2_1
*CAP
1 output_o[43] 0.000336155
2 *1801:Y 0.000336155
3 output_o[43] output_o[44] 0
4 output_o[43] *288:248 0.00011101
5 output_no[42] output_o[43] 0
6 output_no[43] output_o[43] 4.01846e-05
*RES
1 *1801:Y output_o[43] 23.0271 
*END

*D_NET *205 0.000875252
*CONN
*P output_o[44] O
*I *1803:Y O *D sg13g2_nor2_1
*CAP
1 output_o[44] 0.000362029
2 *1803:Y 0.000362029
3 output_o[44] output_o[45] 0
4 output_o[44] *1803:B 0.00011101
5 output_no[43] output_o[44] 0
6 output_no[44] output_o[44] 4.01846e-05
7 output_o[43] output_o[44] 0
*RES
1 *1803:Y output_o[44] 24.2951 
*END

*D_NET *206 0.00214022
*CONN
*P output_o[45] O
*I *1805:Y O *D sg13g2_nor2_1
*CAP
1 output_o[45] 0.000849688
2 *1805:Y 0.000849688
3 output_o[45] *1838:D 0
4 output_o[45] *2027:B 4.77425e-05
5 output_o[45] *222:8 0
6 output_o[45] *316:14 8.00842e-05
7 output_o[45] *316:24 0.000272834
8 output_o[45] *318:10 0
9 output_o[45] *318:22 0
10 output_no[44] output_o[45] 0
11 output_no[45] output_o[45] 4.01846e-05
12 output_o[44] output_o[45] 0
*RES
1 *1805:Y output_o[45] 28.5387 
*END

*D_NET *207 0.0014848
*CONN
*P output_o[46] O
*I *1807:Y O *D sg13g2_nor2_1
*CAP
1 output_o[46] 9.74818e-05
2 *1807:Y 0.000234682
3 *207:10 0.000332164
4 *207:10 *278:18 0.000175693
5 *207:10 *288:43 0.00011101
6 *207:10 *316:24 2.21839e-05
7 *207:10 *318:22 0.000341949
8 output_no[45] output_o[46] 0
9 output_no[46] output_o[46] 0.000169639
*RES
1 *1807:Y *207:10 42.7707 
2 *207:10 output_o[46] 21.133 
*END

*D_NET *208 0.00351221
*CONN
*P output_o[47] O
*I *1809:Y O *D sg13g2_nor2_1
*CAP
1 output_o[47] 0.000431068
2 *1809:Y 0.000656057
3 *208:14 0.00108713
4 output_o[47] *2036:B 4.77425e-05
5 output_o[47] *324:12 0
6 output_o[47] *324:18 0
7 output_o[47] *335:10 8.0039e-05
8 output_o[47] *335:16 0.000272911
9 *208:14 *1809:B 0.00014391
10 *208:14 *2046:A 0.000305013
11 *208:14 *280:27 0.000112426
12 *208:14 *287:38 0
13 *208:14 *308:29 0
14 *208:14 *321:23 0.000335735
15 *208:14 *335:10 0
16 output_no[46] output_o[47] 0
17 output_no[47] output_o[47] 4.01846e-05
*RES
1 *1809:Y *208:14 46.9628 
2 *208:14 output_o[47] 24.1612 
*END

*D_NET *209 0.00060216
*CONN
*P output_o[48] O
*I *1816:Y O *D sg13g2_nor2_1
*CAP
1 output_o[48] 0.000280988
2 *1816:Y 0.000280988
3 output_no[47] output_o[48] 0
4 output_no[48] output_o[48] 4.01846e-05
*RES
1 *1816:Y output_o[48] 22.5647 
*END

*D_NET *210 0.00167479
*CONN
*P output_o[49] O
*I *1820:Y O *D sg13g2_nor2_1
*CAP
1 output_o[49] 2.15282e-05
2 *1820:Y 0.000523936
3 *210:10 0.000545464
4 *210:10 *1820:A 0.000175648
5 *210:10 *2033:B 8.00842e-05
6 *210:10 *266:10 0
7 *210:10 *322:20 0.000288087
8 *210:10 *323:10 0
9 output_no[48] output_o[49] 0
10 output_no[49] output_o[49] 4.00421e-05
11 output_no[49] *210:10 0
*RES
1 *1820:Y *210:10 45.3354 
2 *210:10 output_o[49] 20.2678 
*END

*D_NET *211 0.00662377
*CONN
*P output_o[4] O
*I *2023:Y O *D sg13g2_nor2_1
*CAP
1 output_o[4] 0.000644456
2 *2023:Y 0.000203547
3 *211:8 0.000848003
4 *211:8 *2023:B 1.54008e-05
5 output_no[2] output_o[4] 0.00268623
6 output_no[3] output_o[4] 0
7 output_no[4] output_o[4] 7.23838e-05
8 output_no[5] output_o[4] 0.00215375
9 output_o[10] *211:8 0
*RES
1 *2023:Y *211:8 40.355 
2 *211:8 output_o[4] 32.9471 
*END

*D_NET *212 0.00073191
*CONN
*P output_o[50] O
*I *1824:Y O *D sg13g2_nor2_1
*CAP
1 output_o[50] 0.000345876
2 *1824:Y 0.000345876
3 output_o[50] *2042:B 0
4 output_no[50] output_o[50] 4.01572e-05
*RES
1 *1824:Y output_o[50] 23.8007 
*END

*D_NET *213 0.00157861
*CONN
*P output_o[51] O
*I *1827:Y O *D sg13g2_nor2_1
*CAP
1 output_o[51] 0.000522915
2 *1827:Y 0.000522915
3 output_o[51] *1827:A 0
4 output_o[51] *1827:B 0.00014391
5 output_o[51] *1828:B 0.00012164
6 output_o[51] *1828:A 1.8481e-05
7 output_o[51] *345:14 0
8 output_o[51] *346:18 0
9 output_no[50] output_o[51] 0
10 output_no[51] output_o[51] 0.00024875
*RES
1 *1827:Y output_o[51] 25.047 
*END

*D_NET *214 0.000697544
*CONN
*P output_o[52] O
*I *1831:Y O *D sg13g2_nor2_1
*CAP
1 output_o[52] 0.000328693
2 *1831:Y 0.000328693
3 output_o[52] output_o[53] 0
4 output_no[51] output_o[52] 0
5 output_no[52] output_o[52] 4.01572e-05
*RES
1 *1831:Y output_o[52] 23.5535 
*END

*D_NET *215 0.000877797
*CONN
*P output_o[53] O
*I *1835:Y O *D sg13g2_nor2_1
*CAP
1 output_o[53] 0.000298632
2 *1835:Y 0.000298632
3 output_o[53] output_o[54] 0
4 output_o[53] *1835:B 0.000127951
5 output_o[53] *316:28 0.000112426
6 output_no[52] output_o[53] 0
7 output_no[53] output_o[53] 4.01572e-05
8 output_o[52] output_o[53] 0
*RES
1 *1835:Y output_o[53] 23.5535 
*END

*D_NET *216 0.000889126
*CONN
*P output_o[54] O
*I *1839:Y O *D sg13g2_nor2_1
*CAP
1 output_o[54] 0.00032049
2 *1839:Y 0.00032049
3 output_o[54] output_o[55] 0
4 output_o[54] *1839:B 0.00020799
5 output_no[53] output_o[54] 0
6 output_no[54] output_o[54] 4.01572e-05
7 output_o[53] output_o[54] 0
*RES
1 *1839:Y output_o[54] 23.8007 
*END

*D_NET *217 0.000768327
*CONN
*P output_o[55] O
*I *1842:Y O *D sg13g2_nor2_1
*CAP
1 output_o[55] 0.000364085
2 *1842:Y 0.000364085
3 output_o[55] output_o[56] 0
4 output_no[54] output_o[55] 0
5 output_no[55] output_o[55] 4.01572e-05
6 output_o[54] output_o[55] 0
*RES
1 *1842:Y output_o[55] 22.4727 
*END

*D_NET *218 0.000872426
*CONN
*P output_o[56] O
*I *1846:Y O *D sg13g2_nor2_1
*CAP
1 output_o[56] 0.000328288
2 *1846:Y 0.000328288
3 output_o[56] output_o[57] 0
4 output_o[56] *321:33 0.000175693
5 output_no[55] output_o[56] 0
6 output_no[56] output_o[56] 4.01572e-05
7 output_o[55] output_o[56] 0
*RES
1 *1846:Y output_o[56] 23.8007 
*END

*D_NET *219 0.00073621
*CONN
*P output_o[57] O
*I *1850:Y O *D sg13g2_nor2_1
*CAP
1 output_o[57] 0.000348027
2 *1850:Y 0.000348027
3 output_o[57] output_o[58] 0
4 output_no[56] output_o[57] 0
5 output_no[57] output_o[57] 4.01572e-05
6 output_o[56] output_o[57] 0
*RES
1 *1850:Y output_o[57] 23.8007 
*END

*D_NET *220 0.000830229
*CONN
*P output_o[58] O
*I *1854:Y O *D sg13g2_nor2_1
*CAP
1 output_o[58] 0.000387393
2 *1854:Y 0.000387393
3 output_o[58] output_o[59] 0
4 output_o[58] *1854:B 1.54008e-05
5 output_no[57] output_o[58] 0
6 output_no[58] output_o[58] 4.00421e-05
7 output_o[57] output_o[58] 0
*RES
1 *1854:Y output_o[58] 24.0479 
*END

*D_NET *221 0.000823195
*CONN
*P output_o[59] O
*I *1858:Y O *D sg13g2_nor2_1
*CAP
1 output_o[59] 0.000391576
2 *1858:Y 0.000391576
3 output_o[59] output_o[60] 0
4 output_no[59] output_o[59] 4.00421e-05
5 output_o[58] output_o[59] 0
*RES
1 *1858:Y output_o[59] 23.6439 
*END

*D_NET *222 0.0530996
*CONN
*P output_o[5] O
*I *2025:Y O *D sg13g2_nor2_1
*CAP
1 output_o[5] 0.00135539
2 *2025:Y 0.00114462
3 *222:12 0.0048399
4 *222:10 0.0034845
5 *222:8 0.00114462
6 output_o[5] output_o[6] 0
7 *222:8 *1805:A 7.98942e-05
8 *222:8 *1838:D 0.000176394
9 *222:8 *233:12 0.00169032
10 *222:12 *233:16 0.019273
11 output_no[5] output_o[5] 0.000104725
12 output_o[45] *222:8 0
13 *3:7 output_o[5] 0
14 *3:154 *222:8 0
15 *7:38 *222:8 0
16 *178:10 *222:12 0.0198062
*RES
1 *2025:Y *222:8 31.948 
2 *222:8 *222:10 20 
3 *222:10 *222:12 91.567 
4 *222:12 output_o[5] 34.5436 
*END

*D_NET *223 0.000885333
*CONN
*P output_o[60] O
*I *1862:Y O *D sg13g2_nor2_1
*CAP
1 output_o[60] 0.000422645
2 *1862:Y 0.000422645
3 output_no[60] output_o[60] 4.00421e-05
4 output_o[59] output_o[60] 0
*RES
1 *1862:Y output_o[60] 23.8471 
*END

*D_NET *224 0.00139828
*CONN
*P output_o[61] O
*I *1866:Y O *D sg13g2_nor2_1
*CAP
1 output_o[61] 0.000222731
2 *1866:Y 0.000127618
3 *224:8 0.00035035
4 output_o[61] *225:10 0.00011101
5 *224:8 *324:33 2.20966e-05
6 *224:8 *332:35 0.000395067
7 output_no[61] output_o[61] 0.000169409
8 *96:10 output_o[61] 0
*RES
1 *1866:Y *224:8 41.8334 
2 *224:8 output_o[61] 22.2145 
*END

*D_NET *225 0.00171009
*CONN
*P output_o[62] O
*I *1870:Y O *D sg13g2_nor2_1
*CAP
1 output_o[62] 0.000140128
2 *1870:Y 0.000262414
3 *225:10 0.000402543
4 output_o[62] *226:12 0.000176882
5 *225:10 *316:32 0.000447703
6 *225:10 *324:33 0
7 output_no[62] output_o[62] 0.000169409
8 output_o[61] *225:10 0.00011101
*RES
1 *1870:Y *225:10 42.8325 
2 *225:10 output_o[62] 21.5656 
*END

*D_NET *226 0.002109
*CONN
*P output_o[63] O
*I *1874:Y O *D sg13g2_nor2_1
*CAP
1 output_o[63] 4.59823e-05
2 *1874:Y 0.000328938
3 *226:12 0.00037492
4 *226:12 *322:35 0.000554906
5 *226:12 *325:37 0.000554993
6 output_no[63] output_o[63] 7.23838e-05
7 output_o[62] *226:12 0.000176882
8 *1813:A *226:12 0
9 *97:10 *226:12 0
*RES
1 *1874:Y *226:12 44.7586 
2 *226:12 output_o[63] 20.4841 
*END

*D_NET *227 0.000670036
*CONN
*P output_o[64] O
*I *1879:Y O *D sg13g2_nor2_1
*CAP
1 output_o[64] 0.000314997
2 *1879:Y 0.000314997
3 output_no[63] output_o[64] 0
4 output_no[64] output_o[64] 4.00421e-05
*RES
1 *1879:Y output_o[64] 23.0591 
*END

*D_NET *228 0.00110619
*CONN
*P output_o[65] O
*I *1881:Y O *D sg13g2_nor2_1
*CAP
1 output_o[65] 0.000118674
2 *1881:Y 0.000149673
3 *228:10 0.000268347
4 *228:10 output_o[66] 0
5 *228:10 *316:32 0.00012816
6 *228:10 *318:33 0.000128248
7 output_no[65] output_o[65] 0.000169409
8 output_no[65] *228:10 0.000143676
*RES
1 *1881:Y *228:10 41.7819 
2 *228:10 output_o[65] 21.133 
*END

*D_NET *229 0.000775026
*CONN
*P output_o[66] O
*I *1883:Y O *D sg13g2_nor2_1
*CAP
1 output_o[66] 0.000367492
2 *1883:Y 0.000367492
3 output_no[66] output_o[66] 4.00421e-05
4 *228:10 output_o[66] 0
*RES
1 *1883:Y output_o[66] 23.5483 
*END

*D_NET *230 0.00146468
*CONN
*P output_o[67] O
*I *1885:Y O *D sg13g2_nor2_1
*CAP
1 output_o[67] 0.000105107
2 *1885:Y 0.000200742
3 *230:10 0.000305849
4 *230:10 output_o[68] 0
5 *230:10 *316:32 0.000341534
6 *230:10 *318:33 0.000342035
7 output_no[67] output_o[67] 0.000169409
8 output_no[67] *230:10 0
*RES
1 *1885:Y *230:10 42.7707 
2 *230:10 output_o[67] 21.133 
*END

*D_NET *231 0.000590294
*CONN
*P output_o[68] O
*I *1887:Y O *D sg13g2_nor2_1
*CAP
1 output_o[68] 0.000275126
2 *1887:Y 0.000275126
3 output_no[68] output_o[68] 4.00421e-05
4 *230:10 output_o[68] 0
*RES
1 *1887:Y output_o[68] 22.5647 
*END

*D_NET *232 0.000634601
*CONN
*P output_o[69] O
*I *1889:Y O *D sg13g2_nor2_1
*CAP
1 output_o[69] 0.000225604
2 *1889:Y 0.000225604
3 output_o[69] *316:36 0.000143351
4 output_no[69] output_o[69] 4.00421e-05
*RES
1 *1889:Y output_o[69] 21.3785 
*END

*D_NET *233 0.0374959
*CONN
*P output_o[6] O
*I *2027:Y O *D sg13g2_nor2_1
*CAP
1 output_o[6] 0.00135525
2 *2027:Y 0.000137995
3 *233:16 0.00642632
4 *233:14 0.00507107
5 *233:12 0.0011064
6 *233:8 0.00124439
7 output_o[6] *312:170 0
8 output_o[6] *312:185 0
9 *233:8 *312:20 0.000394566
10 *233:8 *316:10 0.00012816
11 *233:8 *346:46 0
12 *233:12 *1746:B 0.000305691
13 *233:12 *276:8 0
14 *233:12 *328:14 0
15 output_no[6] output_o[6] 0.000362718
16 output_o[5] output_o[6] 0
17 *222:8 *233:12 0.00169032
18 *222:12 *233:16 0.019273
*RES
1 *2027:Y *233:8 41.8334 
2 *233:8 *233:12 31.5669 
3 *233:12 *233:14 20 
4 *233:14 *233:16 89.095 
5 *233:16 output_o[6] 34.7599 
*END

*D_NET *234 0.000621564
*CONN
*P output_o[70] O
*I *1891:Y O *D sg13g2_nor2_1
*CAP
1 output_o[70] 0.000290761
2 *1891:Y 0.000290761
3 output_o[70] *318:37 0
4 output_no[70] output_o[70] 4.00421e-05
*RES
1 *1891:Y output_o[70] 22.5647 
*END

*D_NET *235 0.00144307
*CONN
*P output_o[71] O
*I *1893:Y O *D sg13g2_nor2_1
*CAP
1 output_o[71] 0.000214521
2 *1893:Y 5.26909e-05
3 *235:8 0.000267212
4 *235:8 *324:33 0.000290236
5 *235:8 *337:33 0.000288588
6 output_no[70] output_o[71] 0
7 output_no[71] output_o[71] 0.000329818
*RES
1 *1893:Y *235:8 41.339 
2 *235:8 output_o[71] 22.2145 
*END

*D_NET *236 0.000512605
*CONN
*P output_o[72] O
*I *1895:Y O *D sg13g2_nor2_1
*CAP
1 output_o[72] 0.000236282
2 *1895:Y 0.000236282
3 output_no[71] output_o[72] 0
4 output_no[72] output_o[72] 4.00421e-05
*RES
1 *1895:Y output_o[72] 22.2145 
*END

*D_NET *237 0.000605514
*CONN
*P output_o[73] O
*I *1897:Y O *D sg13g2_nor2_1
*CAP
1 output_o[73] 0.000282736
2 *1897:Y 0.000282736
3 output_o[73] *1898:A 0
4 output_no[72] output_o[73] 0
5 output_no[73] output_o[73] 4.00421e-05
*RES
1 *1897:Y output_o[73] 22.5647 
*END

*D_NET *238 0.000775535
*CONN
*P output_o[74] O
*I *1899:Y O *D sg13g2_nor2_1
*CAP
1 output_o[74] 0.000215273
2 *1899:Y 0.000215273
3 output_o[74] *1899:A 0.000304947
4 output_no[74] output_o[74] 4.00421e-05
*RES
1 *1899:Y output_o[74] 22.2145 
*END

*D_NET *239 0.000604028
*CONN
*P output_o[75] O
*I *1901:Y O *D sg13g2_nor2_1
*CAP
1 output_o[75] 0.000281993
2 *1901:Y 0.000281993
3 output_no[75] output_o[75] 4.00421e-05
*RES
1 *1901:Y output_o[75] 22.5647 
*END

*D_NET *240 0.000823841
*CONN
*P output_o[76] O
*I *1903:Y O *D sg13g2_nor2_1
*CAP
1 output_o[76] 0.000247012
2 *1903:Y 0.000247012
3 output_no[75] output_o[76] 0
4 output_no[76] output_o[76] 0.000329817
*RES
1 *1903:Y output_o[76] 22.5647 
*END

*D_NET *241 0.000601235
*CONN
*P output_o[77] O
*I *1905:Y O *D sg13g2_nor2_1
*CAP
1 output_o[77] 0.000280596
2 *1905:Y 0.000280596
3 output_no[76] output_o[77] 0
4 output_no[77] output_o[77] 4.00421e-05
*RES
1 *1905:Y output_o[77] 22.5647 
*END

*D_NET *242 0.000626453
*CONN
*P output_o[78] O
*I *1907:Y O *D sg13g2_nor2_1
*CAP
1 output_o[78] 0.000293205
2 *1907:Y 0.000293205
3 output_no[77] output_o[78] 0
4 output_no[78] output_o[78] 4.00421e-05
*RES
1 *1907:Y output_o[78] 22.5647 
*END

*D_NET *243 0.000823817
*CONN
*P output_o[79] O
*I *1909:Y O *D sg13g2_nor2_1
*CAP
1 output_o[79] 0.000304041
2 *1909:Y 0.000304041
3 output_o[79] *1909:A 0.000175693
4 output_no[78] output_o[79] 0
5 output_no[79] output_o[79] 4.00421e-05
*RES
1 *1909:Y output_o[79] 23.5535 
*END

*D_NET *244 0.00157472
*CONN
*P output_o[7] O
*I *2029:Y O *D sg13g2_nor2_1
*CAP
1 output_o[7] 0.000484654
2 *2029:Y 0.000484654
3 output_o[7] *2022:A_N 7.6234e-05
4 output_o[7] *2029:B 0
5 output_o[7] *312:170 0.0001773
6 output_no[7] output_o[7] 0.000351877
*RES
1 *2029:Y output_o[7] 24.9646 
*END

*D_NET *245 0.000601825
*CONN
*P output_o[80] O
*I *1913:Y O *D sg13g2_nor2_1
*CAP
1 output_o[80] 0.000280892
2 *1913:Y 0.000280892
3 output_no[79] output_o[80] 0
4 output_no[80] output_o[80] 4.00421e-05
*RES
1 *1913:Y output_o[80] 22.5647 
*END

*D_NET *246 0.000823997
*CONN
*P output_o[81] O
*I *1915:Y O *D sg13g2_nor2_1
*CAP
1 output_o[81] 0.000247032
2 *1915:Y 0.000247032
3 output_no[80] output_o[81] 0
4 output_no[81] output_o[81] 0.000329932
*RES
1 *1915:Y output_o[81] 22.5647 
*END

*D_NET *247 0.000602097
*CONN
*P output_o[82] O
*I *1917:Y O *D sg13g2_nor2_1
*CAP
1 output_o[82] 0.00028097
2 *1917:Y 0.00028097
3 output_no[81] output_o[82] 0
4 output_no[82] output_o[82] 4.01572e-05
*RES
1 *1917:Y output_o[82] 22.5647 
*END

*D_NET *248 0.0015181
*CONN
*P output_o[83] O
*I *1919:Y O *D sg13g2_nor2_1
*CAP
1 output_o[83] 0.000102681
2 *1919:Y 0.000219605
3 *248:10 0.000322286
4 *248:10 *1919:A 0
5 *248:10 *312:73 0.000181192
6 *248:10 *312:86 0.00018211
7 *248:10 *333:55 0.000340704
8 output_no[82] output_o[83] 0
9 output_no[83] output_o[83] 0.000169524
*RES
1 *1919:Y *248:10 42.7707 
2 *248:10 output_o[83] 21.133 
*END

*D_NET *249 0.00071461
*CONN
*P output_o[84] O
*I *1921:Y O *D sg13g2_nor2_1
*CAP
1 output_o[84] 0.000249099
2 *1921:Y 0.000249099
3 output_o[84] *1919:A 0.000176369
4 output_o[84] *313:152 0
5 output_no[83] output_o[84] 0
6 output_no[84] output_o[84] 4.00421e-05
*RES
1 *1921:Y output_o[84] 22.5647 
*END

*D_NET *250 0.000516361
*CONN
*P output_o[85] O
*I *1923:Y O *D sg13g2_nor2_1
*CAP
1 output_o[85] 0.00023816
2 *1923:Y 0.00023816
3 output_no[84] output_o[85] 0
4 output_no[85] output_o[85] 4.00421e-05
*RES
1 *1923:Y output_o[85] 20.6393 
*END

*D_NET *251 0.000520515
*CONN
*P output_o[86] O
*I *1925:Y O *D sg13g2_nor2_1
*CAP
1 output_o[86] 0.000240237
2 *1925:Y 0.000240237
3 output_no[85] output_o[86] 0
4 output_no[86] output_o[86] 4.00421e-05
*RES
1 *1925:Y output_o[86] 22.1265 
*END

*D_NET *252 0.00140488
*CONN
*P output_o[87] O
*I *1927:Y O *D sg13g2_nor2_1
*CAP
1 output_o[87] 0.000211122
2 *1927:Y 4.3444e-05
3 *252:8 0.000254566
4 output_o[87] *1928:B 1.54008e-05
5 output_o[87] *339:96 7.92265e-05
6 *252:8 *330:73 0.000235141
7 *252:8 *332:74 0.000236276
8 output_no[86] output_o[87] 0
9 output_no[87] output_o[87] 0.000329701
*RES
1 *1927:Y *252:8 41.0918 
2 *252:8 output_o[87] 22.2145 
*END

*D_NET *253 0.000659461
*CONN
*P output_o[88] O
*I *1929:Y O *D sg13g2_nor2_1
*CAP
1 output_o[88] 0.00030971
2 *1929:Y 0.00030971
3 output_no[88] output_o[88] 4.00421e-05
*RES
1 *1929:Y output_o[88] 22.884 
*END

*D_NET *254 0.000594443
*CONN
*P output_o[89] O
*I *1931:Y O *D sg13g2_nor2_1
*CAP
1 output_o[89] 0.0002772
2 *1931:Y 0.0002772
3 output_no[88] output_o[89] 0
4 output_no[89] output_o[89] 4.00421e-05
*RES
1 *1931:Y output_o[89] 22.5647 
*END

*D_NET *255 0.0261226
*CONN
*P output_o[8] O
*I *2031:Y O *D sg13g2_nor2_1
*CAP
1 output_o[8] 0.00118267
2 *2031:Y 0.000988143
3 *255:18 0.00692678
4 *255:16 0.00673224
5 output_o[8] output_o[9] 0
6 output_o[8] *2030:A_N 0
7 output_o[8] *319:14 0
8 *255:16 *1788:B 0
9 *255:16 *1789:A 8.50825e-05
10 *255:16 *2031:A 0.000175725
11 *255:16 *299:8 0.000369932
12 *255:16 *326:10 0
13 *255:16 *346:52 1.54008e-05
14 *255:18 *1837:C 0
15 *255:18 *266:14 0
16 *255:18 *288:127 0.000345425
17 *255:18 *292:14 0.00348073
18 *255:18 *292:32 0.00517717
19 output_no[39] *255:16 1.54008e-05
20 output_no[8] output_o[8] 4.00421e-05
21 *1791:A *255:16 0.000112045
22 *1844:C *255:16 0
23 *3:37 *255:18 0
24 *3:52 *255:18 0
25 *4:17 *255:18 0.000130055
26 *4:32 *255:18 0.000345758
*RES
1 *2031:Y *255:16 49.2288 
2 *255:16 *255:18 73.027 
3 *255:18 output_o[8] 31.7832 
*END

*D_NET *256 0.000604028
*CONN
*P output_o[90] O
*I *1933:Y O *D sg13g2_nor2_1
*CAP
1 output_o[90] 0.000281993
2 *1933:Y 0.000281993
3 output_no[89] output_o[90] 0
4 output_no[90] output_o[90] 4.00421e-05
*RES
1 *1933:Y output_o[90] 22.5647 
*END

*D_NET *257 0.000598619
*CONN
*P output_o[91] O
*I *1935:Y O *D sg13g2_nor2_1
*CAP
1 output_o[91] 0.000279289
2 *1935:Y 0.000279289
3 output_no[90] output_o[91] 0
4 output_no[91] output_o[91] 4.00421e-05
*RES
1 *1935:Y output_o[91] 22.5647 
*END

*D_NET *258 0.000847147
*CONN
*P output_o[92] O
*I *1937:Y O *D sg13g2_nor2_1
*CAP
1 output_o[92] 0.000258818
2 *1937:Y 0.000258818
3 output_o[92] *329:98 0
4 output_no[91] output_o[92] 0
5 output_no[92] output_o[92] 0.000329511
*RES
1 *1937:Y output_o[92] 22.5647 
*END

*D_NET *259 0.000595973
*CONN
*P output_o[93] O
*I *1939:Y O *D sg13g2_nor2_1
*CAP
1 output_o[93] 0.000277966
2 *1939:Y 0.000277966
3 output_no[92] output_o[93] 0
4 output_no[93] output_o[93] 4.00421e-05
*RES
1 *1939:Y output_o[93] 22.5647 
*END

*D_NET *260 0.000617653
*CONN
*P output_o[94] O
*I *1941:Y O *D sg13g2_nor2_1
*CAP
1 output_o[94] 0.000288805
2 *1941:Y 0.000288805
3 output_no[93] output_o[94] 0
4 output_no[94] output_o[94] 4.00421e-05
*RES
1 *1941:Y output_o[94] 22.5647 
*END

*D_NET *261 0.000876868
*CONN
*P output_o[95] O
*I *1943:Y O *D sg13g2_nor2_1
*CAP
1 output_o[95] 0.00029832
2 *1943:Y 0.00029832
3 output_o[95] output_o[96] 0
4 output_o[95] *1943:A 0.000240187
5 output_no[94] output_o[95] 0
6 output_no[95] output_o[95] 4.00421e-05
*RES
1 *1943:Y output_o[95] 23.5535 
*END

*D_NET *262 0.000773401
*CONN
*P output_o[96] O
*I *1947:Y O *D sg13g2_nor2_1
*CAP
1 output_o[96] 0.00036668
2 *1947:Y 0.00036668
3 output_o[96] *1981:B 0
4 output_no[95] output_o[96] 0
5 output_no[96] output_o[96] 4.00421e-05
6 output_o[95] output_o[96] 0
*RES
1 *1947:Y output_o[96] 24.0479 
*END

*D_NET *263 0.000594065
*CONN
*P output_o[97] O
*I *1949:Y O *D sg13g2_nor2_1
*CAP
1 output_o[97] 0.000277012
2 *1949:Y 0.000277012
3 output_no[96] output_o[97] 0
4 output_no[97] output_o[97] 4.00421e-05
*RES
1 *1949:Y output_o[97] 22.5647 
*END

*D_NET *264 0.00052369
*CONN
*P output_o[98] O
*I *1951:Y O *D sg13g2_nor2_1
*CAP
1 output_o[98] 0.000241766
2 *1951:Y 0.000241766
3 output_o[98] *311:100 0
4 output_no[98] output_o[98] 4.01572e-05
*RES
1 *1951:Y output_o[98] 22.2145 
*END

*D_NET *265 0.000816847
*CONN
*P output_o[99] O
*I *1953:Y O *D sg13g2_nor2_1
*CAP
1 output_o[99] 0.000300498
2 *1953:Y 0.000300498
3 output_o[99] *312:103 0.000175693
4 output_no[98] output_o[99] 0
5 output_no[99] output_o[99] 4.01572e-05
*RES
1 *1953:Y output_o[99] 23.1621 
*END

*D_NET *266 0.0397882
*CONN
*P output_o[9] O
*I *2033:Y O *D sg13g2_nor2_1
*CAP
1 output_o[9] 0.00121617
2 *2033:Y 0.0014793
3 *266:14 0.006991
4 *266:12 0.00577482
5 *266:10 0.0014793
6 output_o[9] *2024:A 0.000240377
7 *266:10 *2017:B 8.00842e-05
8 *266:10 *2042:B 0
9 *266:10 *298:10 0
10 *266:10 *323:10 2.04061e-05
11 *266:10 *323:22 2.95294e-05
12 *266:14 *292:14 0
13 *266:14 *306:29 0
14 *266:14 *310:41 0.00845488
15 *266:14 *314:40 0.0106141
16 *266:14 *315:38 0
17 output_no[8] output_o[9] 0
18 output_no[9] output_o[9] 0.000459096
19 output_o[8] output_o[9] 0
20 *4:43 *266:14 0.0015368
21 *4:54 *266:14 0.000291942
22 *4:65 *266:14 0.000884428
23 *4:80 *266:14 0.000235992
24 *178:6 *266:10 0
25 *178:10 *266:14 0
26 *210:10 *266:10 0
27 *255:18 *266:14 0
*RES
1 *2033:Y *266:10 32.051 
2 *266:10 *266:12 20 
3 *266:12 *266:14 95.7694 
4 *266:14 output_o[9] 33.0295 
*END

*D_NET *267 0.0207323
*CONN
*I *1834:B I *D sg13g2_nand4_1
*I *1838:B I *D sg13g2_nand4_1
*I *1787:B I *D sg13g2_nand3_1
*I *1841:B I *D sg13g2_nand4_1
*I *1830:B I *D sg13g2_nand3b_1
*I *1822:A I *D sg13g2_nor3_1
*I *1818:A I *D sg13g2_nor3_1
*I *1772:A I *D sg13g2_or2_1
*I *1768:A I *D sg13g2_or2_1
*I *1735:Y O *D sg13g2_inv_1
*CAP
1 *1834:B 0.000288966
2 *1838:B 0.00013998
3 *1787:B 0.000160553
4 *1841:B 0
5 *1830:B 0
6 *1822:A 3.04198e-05
7 *1818:A 0.000428935
8 *1772:A 4.7534e-05
9 *1768:A 0.000419367
10 *1735:Y 7.17331e-05
11 *267:91 0.00136388
12 *267:80 0.00132941
13 *267:71 0.00215617
14 *267:58 0.00242931
15 *267:43 0.000735554
16 *267:32 0.000806158
17 *267:12 0.000510205
18 *267:8 0.00029419
19 *1768:A *1768:B 0
20 *1768:A *290:36 0
21 *1772:A *1772:B 1.54008e-05
22 *1787:B *320:22 0.000241052
23 *1818:A *1822:B 0
24 *1818:A *290:36 0
25 *1822:A *310:33 4.77425e-05
26 *267:8 *291:14 0.000184311
27 *267:32 *291:12 0.000346423
28 *267:32 *291:14 0.000107631
29 *267:43 *291:10 0.000183827
30 *267:43 *291:12 0.000324333
31 *267:58 *291:10 0.000161555
32 *267:71 *290:36 0
33 *267:71 *292:42 0.000129968
34 *1834:C *1834:B 4.77702e-05
35 *1838:C *1838:B 1.54008e-05
36 *1856:A *1787:B 0
37 *3:37 *267:58 0.0010468
38 *3:52 *267:58 7.61961e-05
39 *3:52 *267:71 0.00133337
40 *3:78 *267:80 0.000454387
41 *3:78 *267:91 0.000540261
42 *3:98 *267:91 0.000939942
43 *3:109 *267:91 0.00115487
44 *3:154 *1838:B 0.000176369
45 *3:154 *267:91 0.000776391
46 *4:17 *267:58 2.24232e-05
47 *5:137 *267:91 0.000509897
48 *5:146 *267:91 0.000215746
49 *5:159 *267:91 0.00021522
50 *6:37 *267:71 0
51 *7:38 *1834:B 0.000252608
52 *7:38 *1838:B 0
*RES
1 *1735:Y *267:8 40.8446 
2 *267:8 *267:12 20.5356 
3 *267:12 *1768:A 23.9455 
4 *267:12 *1772:A 20.6695 
5 *267:8 *267:32 2.0806 
6 *267:32 *1818:A 44.2127 
7 *267:32 *267:43 2.3278 
8 *267:43 *1822:A 40.3193 
9 *267:43 *267:58 6.4581 
10 *267:58 *1830:B 40 
11 *267:58 *267:71 18.8181 
12 *267:71 *1841:B 40 
13 *267:71 *267:80 2.8222 
14 *267:80 *1787:B 41.6171 
15 *267:80 *267:91 15.6766 
16 *267:91 *1838:B 41.4008 
17 *267:91 *1834:B 42.987 
*END

*D_NET *268 0.0105485
*CONN
*I *1837:B I *D sg13g2_nor3_1
*I *1829:B I *D sg13g2_nor3_1
*I *1822:B I *D sg13g2_nor3_1
*I *1818:B I *D sg13g2_nor3_1
*I *1833:B I *D sg13g2_nor3_1
*I *1814:A I *D sg13g2_nor2_1
*I *1736:Y O *D sg13g2_inv_1
*CAP
1 *1837:B 0.000328639
2 *1829:B 0.000153495
3 *1822:B 0.000379555
4 *1818:B 6.34193e-05
5 *1833:B 5.52954e-05
6 *1814:A 0.000327838
7 *1736:Y 8.96193e-05
8 *268:47 0.000623001
9 *268:36 0.000395926
10 *268:25 0.000408228
11 *268:21 0.000634168
12 *268:8 0.00061261
13 *1814:A *295:29 1.54008e-05
14 *1814:A *296:14 0
15 *1814:A *306:27 0
16 *1822:B *310:12 7.93692e-05
17 *1822:B *310:33 6.46834e-05
18 *1829:B *294:10 0.000445347
19 *1829:B *313:16 0
20 *1833:B *1781:B 1.54008e-05
21 *1833:B *315:36 1.54008e-05
22 *1837:B *315:36 0
23 *268:21 *283:27 0.000827479
24 *268:21 *294:10 0
25 *268:21 *296:14 0.000608042
26 *268:36 *294:10 0.00129887
27 *268:47 *294:10 0.000501149
28 *1818:A *1822:B 0
29 *1829:A *1822:B 0
30 *1829:A *1829:B 0
31 *1833:A *1837:B 0.000290312
32 *1833:A *268:25 0.000111567
33 *1837:A *1837:B 0
34 *127:12 *1829:B 0.000424666
35 *127:12 *268:36 0.00129929
36 *127:12 *268:47 0.000479729
*RES
1 *1736:Y *268:8 20.8858 
2 *268:8 *1814:A 22.9149 
3 *268:8 *268:21 43.811 
4 *268:21 *268:25 1.1021 
5 *268:25 *1833:B 20.5356 
6 *268:25 *268:36 26.0358 
7 *268:36 *1818:B 40.5356 
8 *268:36 *268:47 2.3278 
9 *268:47 *1822:B 43.5638 
10 *268:47 *1829:B 42.6162 
11 *268:21 *1837:B 22.9149 
*END

*D_NET *269 0.0174407
*CONN
*I *1869:B I *D sg13g2_nand3_1
*I *1868:B I *D sg13g2_and3_1
*I *1865:B I *D sg13g2_nand3_1
*I *1864:B I *D sg13g2_and3_1
*I *1750:A I *D sg13g2_nand2_1
*I *1746:A I *D sg13g2_nand2_1
*I *1860:D I *D sg13g2_and4_1
*I *1738:C I *D sg13g2_nand3_1
*I *1755:A I *D sg13g2_nand2_1
*I *1861:D I *D sg13g2_nand4_1
*I *1737:Y O *D sg13g2_nor2_1
*CAP
1 *1869:B 0.000224888
2 *1868:B 8.26304e-05
3 *1865:B 0.000186552
4 *1864:B 5.54938e-05
5 *1750:A 0.000154917
6 *1746:A 0.00015151
7 *1860:D 0
8 *1738:C 5.05411e-05
9 *1755:A 0.000363752
10 *1861:D 0
11 *1737:Y 0.000253404
12 *269:122 0.000340506
13 *269:81 0.000272377
14 *269:47 0.000639872
15 *269:43 0.000542466
16 *269:36 0.00056697
17 *269:26 0.00108466
18 *269:24 0.00189258
19 *269:16 0.00150397
20 *269:12 0.000455627
21 *269:8 0.000433968
22 *1746:A *1746:B 0
23 *1746:A *328:14 0.000208666
24 *1750:A *1750:B 0
25 *1750:A *288:37 0.000176205
26 *1755:A *1755:B 0
27 *1755:A *270:12 0
28 *1755:A *321:10 0
29 *1865:B *311:16 0
30 *1865:B *331:8 4.75151e-05
31 *1868:B *1831:B 7.98582e-05
32 *1868:B *1868:C 3.24568e-05
33 *1868:B *277:81 0.000112228
34 *1868:B *314:44 8.02269e-05
35 *1869:B *277:81 0.00011101
36 *1869:B *288:18 0.000106064
37 *1869:B *309:40 0.00012816
38 *1869:B *333:8 0
39 *269:8 *1831:B 0
40 *269:8 *310:49 0
41 *269:8 *314:44 0
42 *269:12 *288:18 0.000769622
43 *269:12 *309:12 0.000341216
44 *269:12 *309:40 0.000427282
45 *269:24 *275:65 0
46 *269:24 *288:18 0.0010541
47 *269:24 *288:20 0.000641317
48 *269:24 *298:12 0
49 *269:24 *298:18 0
50 *269:24 *298:127 0
51 *269:24 *309:12 0.000870829
52 *269:26 *1805:B 0.000449137
53 *269:26 *288:20 7.51285e-05
54 *269:26 *298:18 0
55 *269:36 *1794:A 0
56 *269:36 *275:8 0
57 *269:36 *280:19 0
58 *269:36 *298:18 0
59 *269:36 *329:10 0
60 *269:122 *288:18 0.00015983
61 *269:122 *309:40 0.000181192
62 *1738:A *1755:A 4.75525e-05
63 *1860:A *269:43 4.77425e-05
64 *1860:A *269:81 0.00024184
65 *1860:C *269:81 0.00018387
66 *1865:A *1865:B 0.000112426
67 *1865:A *269:16 0
68 *3:113 *269:36 4.77425e-05
69 *3:122 *269:36 1.54008e-05
70 *3:122 *269:43 6.46834e-05
71 *3:122 *269:81 0.000226555
72 *3:332 *1869:B 4.77425e-05
73 *4:134 *1755:A 3.23417e-05
74 *4:145 *1755:A 0.00018387
75 *4:145 *269:47 0.000269852
76 *4:156 *269:47 0.000346423
77 *4:167 *269:47 0.00018387
78 *5:133 *1738:C 8.00842e-05
*RES
1 *1737:Y *269:8 42.266 
2 *269:8 *269:12 23.5638 
3 *269:12 *269:16 1.133 
4 *269:16 *269:24 34.0904 
5 *269:24 *269:26 4.0582 
6 *269:26 *269:36 24.738 
7 *269:36 *1861:D 20 
8 *269:36 *269:43 0.5356 
9 *269:43 *269:47 23.5638 
10 *269:47 *1755:A 43.811 
11 *269:47 *1738:C 40.5356 
12 *269:43 *269:81 43.0282 
13 *269:81 *1860:D 20 
14 *269:26 *1746:A 41.4008 
15 *269:24 *1750:A 41.4008 
16 *269:16 *1864:B 20.5356 
17 *269:12 *1865:B 21.751 
18 *269:8 *269:122 0.8446 
19 *269:122 *1868:B 40.9682 
20 *269:122 *1869:B 42.3484 
*END

*D_NET *270 0.0189651
*CONN
*I *1804:A_N I *D sg13g2_nand2b_1
*I *1803:A I *D sg13g2_nor2_1
*I *1744:A_N I *D sg13g2_nand2b_1
*I *1743:A I *D sg13g2_nor2_1
*I *1738:Y O *D sg13g2_nand3_1
*CAP
1 *1804:A_N 4.16325e-05
2 *1803:A 0
3 *1744:A_N 0
4 *1743:A 0
5 *1738:Y 0.000912968
6 *270:46 0.000205452
7 *270:34 9.92265e-05
8 *270:28 0.000276199
9 *270:26 0.002278
10 *270:18 0.0022591
11 *270:12 0.00123486
12 *1804:A_N *345:38 0.000212872
13 *1804:A_N *346:46 0.000235056
14 *270:12 *1755:B 0
15 *270:12 *1796:A 0
16 *270:12 *277:8 0
17 *270:12 *288:230 0.000112426
18 *270:12 *298:18 0
19 *270:12 *301:10 0
20 *270:12 *301:14 6.46834e-05
21 *270:12 *301:18 1.54008e-05
22 *270:12 *345:46 0.000128247
23 *270:12 *346:52 0.00012816
24 *270:18 *301:14 1.54008e-05
25 *270:18 *301:18 0.000208035
26 *270:26 *287:52 0
27 *270:26 *287:54 0
28 *270:26 *287:60 0
29 *270:26 *288:53 0.000287256
30 *270:26 *301:22 0.00273977
31 *270:26 *345:54 0.00152982
32 *270:26 *345:56 0.00268623
33 *270:28 *273:22 1.54008e-05
34 *270:28 *273:28 0.00014372
35 *270:34 *274:46 0.000288587
36 *270:34 *326:12 0
37 *270:46 *345:38 0.000234727
38 *270:46 *345:46 0.000638874
39 *270:46 *346:46 0.000584597
40 *270:46 *346:52 0.000288173
41 output_o[29] *270:28 0
42 *1755:A *270:12 0
43 *70:10 *270:26 0.000181192
44 *195:10 *270:26 0.000395396
45 *201:10 *270:26 0.000395396
46 *203:10 *270:26 0.000128248
*RES
1 *1738:Y *270:12 48.3448 
2 *270:12 *270:18 41.4008 
3 *270:18 *270:26 49.6949 
4 *270:26 *270:28 1.6171 
5 *270:28 *270:34 41.339 
6 *270:34 *1743:A 20 
7 *270:28 *1744:A_N 20 
8 *270:12 *270:46 4.0582 
9 *270:46 *1803:A 40 
10 *270:46 *1804:A_N 41.0918 
*END

*D_NET *271 0.0450004
*CONN
*I *1912:B I *D sg13g2_or2_1
*I *1911:B I *D sg13g2_nor2_1
*I *1742:A I *D sg13g2_or2_1
*I *1741:A I *D sg13g2_nor2_1
*I *1739:Y O *D sg13g2_nand2b_1
*CAP
1 *1912:B 0.000118588
2 *1911:B 0
3 *1742:A 0
4 *1741:A 8.99816e-05
5 *1739:Y 0.000101119
6 *271:50 0.000523986
7 *271:46 0.00369642
8 *271:44 0.0034621
9 *271:24 0.000341533
10 *271:18 0.00384314
11 *271:16 0.00359159
12 *271:14 0.000239105
13 *271:6 0.0005113
14 *1741:A *276:10 0
15 *1912:B *1913:A 0
16 *271:14 *285:12 0
17 *271:14 *286:10 0.000662347
18 *271:14 *320:45 7.81195e-05
19 *271:18 *306:60 0
20 *271:18 *307:52 0.00566536
21 *271:18 *308:37 0
22 *271:18 *308:39 0
23 *271:24 *276:10 0
24 *271:46 *286:39 0
25 *271:46 *309:46 0.00371099
26 *271:46 *311:40 0.00423752
27 *271:46 *319:116 0.00472293
28 *271:46 *328:48 0
29 *271:50 *1913:A 0.000240377
30 *1912:A *1912:B 3.29538e-05
31 *2014:B *271:6 4.77425e-05
32 *10:92 *271:14 0.000395113
33 *22:14 *271:18 0.00034304
34 *22:26 *271:18 0
35 *22:30 *271:18 0.0021714
36 *42:14 *271:18 0.00527356
37 *127:12 *1741:A 0.000236057
38 *127:12 *271:24 0.000664043
39 *171:16 *271:18 0
*RES
1 *1739:Y *271:6 20.9682 
2 *271:6 *271:14 43.605 
3 *271:14 *271:16 20 
4 *271:16 *271:18 58.4422 
5 *271:18 *271:24 43.0694 
6 *271:24 *1741:A 41.0918 
7 *271:24 *1742:A 40 
8 *271:6 *271:44 21.4008 
9 *271:44 *271:46 53.0038 
10 *271:46 *271:50 23.5638 
11 *271:50 *1911:B 20 
12 *271:50 *1912:B 21.4471 
*END

*D_NET *272 0.0264083
*CONN
*I *1764:A_N I *D sg13g2_nand2b_1
*I *1742:B I *D sg13g2_or2_1
*I *1741:B I *D sg13g2_nor2_1
*I *1763:A I *D sg13g2_nor2_1
*I *1740:Y O *D sg13g2_nand2_1
*CAP
1 *1764:A_N 0.000122377
2 *1742:B 0
3 *1741:B 0.000124006
4 *1763:A 0
5 *1740:Y 0
6 *272:27 0.0020427
7 *272:25 0.00261707
8 *272:12 0.00152578
9 *272:6 0.000949779
10 *1741:B *280:19 0.00034245
11 *1764:A_N *286:10 0.000180302
12 *1764:A_N *288:8 0
13 *1764:A_N *334:29 0
14 *272:12 *277:68 0.000713119
15 *272:12 *286:10 0
16 *272:12 *286:18 0.000334727
17 *272:12 *287:8 7.48178e-05
18 *272:12 *310:49 0.000126358
19 *272:12 *311:16 0
20 *272:12 *334:29 0
21 *272:25 *2041:A 0.00012816
22 *272:25 *277:51 1.56005e-05
23 *272:25 *277:68 0.00166934
24 *272:25 *287:23 0.00012816
25 *272:25 *288:18 0.000342059
26 *272:27 *276:10 0
27 *272:27 *277:19 0.00103131
28 *272:27 *277:34 0.000659311
29 *272:27 *277:49 0.000529598
30 *272:27 *280:19 0.00742009
31 *272:27 *280:40 0.000472196
32 *272:27 *280:55 0.000181192
33 *272:27 *298:22 0
34 *272:27 *298:37 0.000554579
35 *1740:B *272:12 0.000337406
36 *1823:A *1764:A_N 0
37 *1865:A *272:25 1.54008e-05
38 *3:304 *272:12 7.30101e-05
39 *3:332 *272:12 0.000126354
40 *10:92 *1764:A_N 0.000142536
41 *10:92 *272:12 4.86123e-05
42 *127:12 *1741:B 0.00034245
43 *127:12 *272:27 0.00303746
*RES
1 *1740:Y *272:6 40 
2 *272:6 *272:12 29.0743 
3 *272:12 *1763:A 20 
4 *272:12 *272:25 29.0846 
5 *272:25 *272:27 37.4302 
6 *272:27 *1741:B 42.1218 
7 *272:27 *1742:B 40 
8 *272:6 *1764:A_N 41.6995 
*END

*D_NET *273 0.0185661
*CONN
*I *1757:A I *D sg13g2_nand2_1
*I *1744:B I *D sg13g2_nand2b_1
*I *2059:A I *D sg13g2_and2_1
*I *2060:A I *D sg13g2_nand2_1
*I *2058:A I *D sg13g2_nand2_1
*I *2057:A I *D sg13g2_and2_1
*I *2055:A I *D sg13g2_and2_1
*I *2048:A I *D sg13g2_nand2_1
*I *2056:A I *D sg13g2_nand2_1
*I *1741:Y O *D sg13g2_nor2_1
*CAP
1 *1757:A 2.55939e-05
2 *1744:B 0
3 *2059:A 7.15465e-05
4 *2060:A 8.27092e-05
5 *2058:A 0
6 *2057:A 0
7 *2055:A 7.32e-05
8 *2048:A 0.000278308
9 *2056:A 0
10 *1741:Y 0.00011385
11 *273:84 0.000326419
12 *273:69 0.0003884
13 *273:40 0.000436539
14 *273:34 0.000311236
15 *273:32 0.000164813
16 *273:30 0.000177818
17 *273:28 0.000954536
18 *273:22 0.00148394
19 *273:10 0.000698624
20 *273:8 0.00011385
21 *1757:A *284:10 3.21969e-05
22 *2048:A *2054:B 0
23 *2048:A *294:16 0
24 *273:8 *276:10 0.000288588
25 *273:22 *1751:B 0
26 *273:22 *1752:A 0
27 *273:22 *274:46 0.000554184
28 *273:22 *284:10 0.000176323
29 *273:22 *299:14 0
30 *273:28 *293:24 0.00389034
31 *273:28 *326:12 0.00393428
32 *273:30 *293:24 0.000372556
33 *273:30 *326:12 0.000395177
34 *273:32 *293:24 0.000106064
35 *273:32 *326:12 0.00012816
36 *273:34 *293:24 0.000426659
37 *273:34 *326:12 0.000450066
38 *273:40 *293:24 0.000287845
39 *273:40 *326:12 0.000287256
40 *273:84 *2057:B 0.0001919
41 *273:84 *294:16 0
42 *273:84 *306:27 0
43 output_no[21] *2060:A 0.000143674
44 output_no[21] *273:69 7.92265e-05
45 output_no[21] *273:84 0.000144387
46 output_no[28] *273:28 0
47 *46:10 *2048:A 4.77425e-05
48 *46:10 *273:40 0.00014391
49 *53:10 *2060:A 0.000111523
50 *63:12 *1757:A 1.54008e-05
51 *63:12 *273:22 0.000498134
52 *127:12 *273:8 0
53 *270:28 *273:22 1.54008e-05
54 *270:28 *273:28 0.00014372
*RES
1 *1741:Y *273:8 41.339 
2 *273:8 *273:10 20 
3 *273:10 *273:22 47.0555 
4 *273:22 *273:28 39.1168 
5 *273:28 *273:30 1.8334 
6 *273:30 *273:32 0.5974 
7 *273:32 *273:34 2.0806 
8 *273:34 *273:40 22.3072 
9 *273:40 *2056:A 20 
10 *273:40 *2048:A 22.7192 
11 *273:34 *2055:A 40.5356 
12 *273:32 *273:69 20.5356 
13 *273:69 *2057:A 20 
14 *273:69 *273:84 43.399 
15 *273:84 *2058:A 20 
16 *273:30 *2060:A 40.9682 
17 *273:28 *2059:A 40.5356 
18 *273:22 *1744:B 20 
19 *273:10 *1757:A 20.3193 
*END

*D_NET *274 0.0170376
*CONN
*I *1756:A I *D sg13g2_nor2_1
*I *1751:A I *D sg13g2_nor2_1
*I *1752:A I *D sg13g2_or2_1
*I *1743:B I *D sg13g2_nor2_1
*I *2070:A I *D sg13g2_or2_1
*I *2069:A I *D sg13g2_nor2_1
*I *2068:A I *D sg13g2_or2_1
*I *2067:A I *D sg13g2_nor2_1
*I *2066:A I *D sg13g2_or2_1
*I *2065:A I *D sg13g2_nor2_1
*I *2064:A I *D sg13g2_or2_1
*I *2063:A I *D sg13g2_nor2_1
*I *2062:A I *D sg13g2_or2_1
*I *2061:A I *D sg13g2_nor2_1
*I *2054:A I *D sg13g2_or2_1
*I *2053:A I *D sg13g2_nor2_1
*I *2052:A I *D sg13g2_or2_1
*I *2051:A I *D sg13g2_nor2_1
*I *2050:A I *D sg13g2_or2_1
*I *2049:A I *D sg13g2_nor2_1
*I *2047:A I *D sg13g2_nor2_1
*I *1747:A I *D sg13g2_nor2_1
*I *1748:A I *D sg13g2_or2_1
*I *1742:X O *D sg13g2_or2_1
*CAP
1 *1756:A 0.000190633
2 *1751:A 0
3 *1752:A 0.000120013
4 *1743:B 3.39459e-05
5 *2070:A 0
6 *2069:A 0
7 *2068:A 0
8 *2067:A 0
9 *2066:A 0
10 *2065:A 0
11 *2064:A 0
12 *2063:A 0
13 *2062:A 0
14 *2061:A 0
15 *2054:A 3.63916e-05
16 *2053:A 2.85637e-05
17 *2052:A 3.94629e-05
18 *2051:A 0.000316653
19 *2050:A 3.26408e-05
20 *2049:A 3.51297e-05
21 *2047:A 9.01628e-05
22 *1747:A 0
23 *1748:A 0
24 *1742:X 7.39286e-05
25 *274:84 0.000244182
26 *274:82 0.000230207
27 *274:80 0.000478124
28 *274:78 0.000181355
29 *274:76 0.00021698
30 *274:74 0.000710139
31 *274:68 0.000689558
32 *274:66 0.000276693
33 *274:64 0.000281603
34 *274:62 0.000533491
35 *274:60 0.000511432
36 *274:58 0.00025705
37 *274:56 0.000258027
38 *274:54 0.000262394
39 *274:52 0.000261606
40 *274:50 0.000300562
41 *274:46 0.000517533
42 *274:42 0.000431207
43 *274:40 0.000527988
44 *274:26 0.000224004
45 *274:16 0.000395633
46 *274:10 0.000800155
47 *274:6 0.000365099
48 *1743:B *2069:B 0
49 *1752:A *299:14 0
50 *1752:A *326:12 0
51 *1756:A *280:8 0
52 *2047:A *284:26 0
53 *2047:A *326:12 0.00013021
54 *2049:A *2049:B 0
55 *2050:A *2049:B 0
56 *2051:A *290:14 0
57 *2054:A *293:28 8.00842e-05
58 *274:10 *283:27 0.000557058
59 *274:10 *296:28 0.000532395
60 *274:16 *1747:B 0
61 *274:16 *283:27 0.000397963
62 *274:16 *296:28 0.000395396
63 *274:26 *1748:B 0.00020878
64 *274:26 *308:29 0.00012816
65 *274:26 *312:166 0.000128247
66 *274:40 *1747:B 0
67 *274:40 *284:10 0.00036918
68 *274:46 *299:14 0
69 *274:46 *326:12 0
70 *274:50 *299:14 0
71 *274:50 *326:12 0
72 *274:52 *299:14 0
73 *274:52 *326:12 0
74 *274:54 *299:14 0
75 *274:54 *326:12 0
76 *274:56 *299:14 0
77 *274:56 *326:12 0
78 *274:58 *299:14 0
79 *274:58 *326:12 0
80 *274:60 *299:14 0
81 *274:60 *326:12 0
82 *274:62 *2063:B 0
83 *274:62 *299:14 0
84 *274:62 *326:12 0
85 *274:64 *2063:B 0
86 *274:64 *295:38 0
87 *274:64 *326:12 0
88 *274:66 *295:8 0
89 *274:66 *295:38 0
90 *274:66 *326:12 0
91 *274:68 *295:8 0
92 *274:68 *326:12 0
93 *274:74 *294:22 0
94 *274:74 *295:8 0
95 *274:74 *306:10 0
96 *274:74 *307:16 0
97 *274:74 *326:12 0.00156671
98 *274:76 *293:34 0
99 *274:76 *326:12 0.000320048
100 *274:78 *307:16 0
101 *274:78 *326:12 0.000161687
102 *274:80 *307:16 0
103 *274:80 *326:12 0.000212014
104 *274:82 *326:12 0.000215299
105 *274:84 *307:16 0
106 *274:84 *326:12 0.000319897
107 output_no[18] *2052:A 1.54008e-05
108 output_no[19] *2054:A 1.54008e-05
109 output_no[29] *274:40 0
110 output_o[16] *2047:A 0
111 output_o[17] *2049:A 1.54008e-05
112 output_o[18] *2051:A 7.98942e-05
113 output_o[18] *2052:A 1.53561e-05
114 output_o[19] *2053:A 1.54008e-05
115 output_o[29] *274:40 0
116 output_o[31] *1756:A 0
117 *1778:A *274:16 0
118 *1778:A *274:26 0
119 *51:8 *274:74 0.000234
120 *63:12 *1752:A 0.000128334
121 *63:12 *274:46 0
122 *270:34 *274:46 0.000288587
123 *273:22 *1752:A 0
124 *273:22 *274:46 0.000554184
*RES
1 *1742:X *274:6 20.5356 
2 *274:6 *274:10 22.575 
3 *274:10 *274:16 23.0179 
4 *274:16 *274:26 42.781 
5 *274:26 *1748:A 20 
6 *274:16 *1747:A 20 
7 *274:10 *274:40 25.0779 
8 *274:40 *274:42 20 
9 *274:42 *274:46 4.3775 
10 *274:46 *274:50 1.9055 
11 *274:50 *274:52 1.339 
12 *274:52 *274:54 1.339 
13 *274:54 *274:56 1.339 
14 *274:56 *274:58 1.339 
15 *274:58 *274:60 1.339 
16 *274:60 *274:62 4.0582 
17 *274:62 *274:64 1.5862 
18 *274:64 *274:66 1.339 
19 *274:66 *274:68 1.5862 
20 *274:68 *274:74 8.1576 
21 *274:74 *274:76 1.5862 
22 *274:76 *274:78 0.8446 
23 *274:78 *274:80 1.0918 
24 *274:80 *274:82 1.0918 
25 *274:82 *274:84 1.5862 
26 *274:84 *2047:A 41.133 
27 *274:84 *2049:A 40.5356 
28 *274:82 *2050:A 40.4476 
29 *274:80 *2051:A 43.296 
30 *274:78 *2052:A 40.5356 
31 *274:76 *2053:A 40.5356 
32 *274:74 *2054:A 40.5356 
33 *274:68 *2061:A 40 
34 *274:66 *2062:A 40 
35 *274:64 *2063:A 40 
36 *274:62 *2064:A 40 
37 *274:60 *2065:A 40 
38 *274:58 *2066:A 40 
39 *274:56 *2067:A 40 
40 *274:54 *2068:A 40 
41 *274:52 *2069:A 40 
42 *274:50 *2070:A 40 
43 *274:46 *1743:B 40.3193 
44 *274:42 *1752:A 41.339 
45 *274:40 *1751:A 20 
46 *274:6 *1756:A 22.0291 
*END

*D_NET *275 0.0114424
*CONN
*I *1819:D I *D sg13g2_nand4_1
*I *1865:C I *D sg13g2_nand3_1
*I *1864:C I *D sg13g2_and3_1
*I *1849:B I *D sg13g2_nand3_1
*I *1848:B I *D sg13g2_and3_1
*I *1834:D I *D sg13g2_nand4_1
*I *1746:B I *D sg13g2_nand2_1
*I *1794:A I *D sg13g2_nand2_1
*I *1745:Y O *D sg13g2_nor2b_1
*CAP
1 *1819:D 0
2 *1865:C 0.000301562
3 *1864:C 0
4 *1849:B 0.000248454
5 *1848:B 0
6 *1834:D 3.32229e-05
7 *1746:B 0.000213331
8 *1794:A 0.000297915
9 *1745:Y 0.000199882
10 *275:76 0.00043461
11 *275:65 0.000787796
12 *275:49 0.000248454
13 *275:47 0.00165107
14 *275:32 0.00115348
15 *275:21 0.000388907
16 *275:8 0.000549439
17 *1794:A *281:23 0.000345533
18 *1794:A *298:18 0.000346048
19 *1794:A *328:14 0
20 *1794:A *329:10 0
21 *1849:B *298:138 0.000272537
22 *1849:B *309:12 0.000240377
23 *1865:C *286:18 8.00842e-05
24 *1865:C *331:8 4.75151e-05
25 *275:8 *328:14 0
26 *275:21 *281:23 0.00029161
27 *275:21 *298:18 0.000269337
28 *275:32 *281:23 0.000724464
29 *275:32 *298:18 0.000702555
30 *275:47 *281:23 0.000614796
31 *275:47 *298:12 0
32 *275:47 *298:18 0.000678298
33 *275:47 *298:127 0
34 *275:65 *309:12 0
35 *275:76 *309:12 0
36 *1746:A *1746:B 0
37 *1834:C *1834:D 1.54008e-05
38 *3:178 *275:47 0
39 *3:213 *275:47 0
40 *3:213 *275:65 0
41 *3:250 *275:65 0
42 *3:265 *275:65 0
43 *233:12 *1746:B 0.000305691
44 *269:24 *275:65 0
45 *269:36 *1794:A 0
46 *269:36 *275:8 0
*RES
1 *1745:Y *275:8 41.6171 
2 *275:8 *1794:A 43.6359 
3 *275:8 *275:21 1.339 
4 *275:21 *1746:B 42.0497 
5 *275:21 *275:32 3.3166 
6 *275:32 *1834:D 40.3193 
7 *275:32 *275:47 9.6717 
8 *275:47 *275:49 20 
9 *275:49 *1848:B 20 
10 *275:49 *1849:B 22.6162 
11 *275:47 *275:65 4.7998 
12 *275:65 *1864:C 40 
13 *275:65 *275:76 21.0918 
14 *275:76 *1865:C 22.6162 
15 *275:76 *1819:D 20 
*END

*D_NET *276 0.0103807
*CONN
*I *1806:A_N I *D sg13g2_nand2b_1
*I *1805:A I *D sg13g2_nor2_1
*I *1747:B I *D sg13g2_nor2_1
*I *1748:B I *D sg13g2_or2_1
*I *1746:Y O *D sg13g2_nand2_1
*CAP
1 *1806:A_N 0.000122066
2 *1805:A 4.91512e-05
3 *1747:B 8.1002e-05
4 *1748:B 0.000322828
5 *1746:Y 4.04083e-05
6 *276:36 0.000251658
7 *276:10 0.00402932
8 *276:8 0.00374634
9 *1748:B *319:10 0
10 *1805:A *1805:B 0
11 *1805:A *318:10 0
12 *1806:A_N *277:19 0
13 *1806:A_N *277:34 0
14 *1806:A_N *329:23 0.000214719
15 *276:8 *328:14 0
16 *276:10 *277:19 0
17 *276:10 *279:62 0
18 *276:10 *287:85 0
19 *276:10 *298:22 0
20 *276:10 *298:37 0
21 *276:10 *319:10 0
22 *276:10 *319:34 0
23 *276:10 *327:16 0
24 *276:10 *327:37 0
25 *276:10 *329:23 0.000717517
26 *276:36 *329:23 0.000213056
27 output_no[29] *1747:B 0
28 output_o[29] *1747:B 1.54008e-05
29 output_o[29] *1748:B 0
30 *1741:A *276:10 0
31 *127:12 *276:10 0
32 *222:8 *1805:A 7.98942e-05
33 *233:12 *276:8 0
34 *271:24 *276:10 0
35 *272:27 *276:10 0
36 *273:8 *276:10 0.000288588
37 *274:16 *1747:B 0
38 *274:26 *1748:B 0.00020878
39 *274:40 *1747:B 0
*RES
1 *1746:Y *276:8 40.3193 
2 *276:8 *276:10 32.9806 
3 *276:10 *1748:B 43.0282 
4 *276:10 *1747:B 40.6042 
5 *276:8 *276:36 1.0918 
6 *276:36 *1805:A 40.5356 
7 *276:36 *1806:A_N 41.6274 
*END

*D_NET *277 0.0172187
*CONN
*I *1853:B I *D sg13g2_nand3_1
*I *1868:C I *D sg13g2_and3_1
*I *1823:D I *D sg13g2_nand4_1
*I *1869:C I *D sg13g2_nand3_1
*I *1852:B I *D sg13g2_and3_1
*I *1750:B I *D sg13g2_nand2_1
*I *1838:D I *D sg13g2_nand4_1
*I *1797:A I *D sg13g2_nand2_1
*I *1749:Y O *D sg13g2_nor2b_1
*CAP
1 *1853:B 0.000304838
2 *1868:C 2.19465e-05
3 *1823:D 0
4 *1869:C 3.34444e-05
5 *1852:B 0.000210713
6 *1750:B 3.31843e-05
7 *1838:D 0.000248921
8 *1797:A 3.34444e-05
9 *1749:Y 0.000425593
10 *277:93 0.000308242
11 *277:81 0.000536826
12 *277:68 0.000940254
13 *277:51 0.00094877
14 *277:49 0.000782174
15 *277:34 0.000688564
16 *277:19 0.000813252
17 *277:8 0.000807438
18 *1750:B *287:38 4.76977e-05
19 *1797:A *329:10 4.77425e-05
20 *1838:D *1805:B 0.000144584
21 *1852:B *1852:C 8.00842e-05
22 *1852:B *287:23 7.98567e-05
23 *1853:B *287:8 0.00050059
24 *1853:B *298:144 7.49633e-05
25 *1853:B *334:29 0.000129659
26 *1869:C *1831:B 4.77425e-05
27 *277:8 *298:18 0
28 *277:8 *329:10 8.00842e-05
29 *277:19 *1794:B 0.00012816
30 *277:49 *2046:A 0
31 *277:49 *280:27 0.000177812
32 *277:49 *280:55 0.000181192
33 *277:49 *329:23 0
34 *277:49 *334:29 0
35 *277:68 *2041:A 0
36 *277:68 *286:10 7.51285e-05
37 *277:68 *286:18 0.000334727
38 *277:68 *287:8 0.00166903
39 *277:68 *311:16 0.000660087
40 *277:81 *1831:B 6.46834e-05
41 *277:93 *314:63 0.000235484
42 *277:93 *332:10 0.000248752
43 output_o[45] *1838:D 0
44 *1750:A *1750:B 0
45 *1806:A_N *277:19 0
46 *1806:A_N *277:34 0
47 *1823:B *1868:C 0
48 *1823:C *277:93 7.31538e-06
49 *1838:C *1838:D 1.54008e-05
50 *1868:B *1868:C 3.24568e-05
51 *1868:B *277:81 0.000112228
52 *1869:B *277:81 0.00011101
53 *3:238 *1853:B 0
54 *3:298 *277:93 0
55 *222:8 *1838:D 0.000176394
56 *270:12 *277:8 0
57 *272:12 *277:68 0.000713119
58 *272:25 *277:51 1.56005e-05
59 *272:25 *277:68 0.00166934
60 *272:27 *277:19 0.00103131
61 *272:27 *277:34 0.000659311
62 *272:27 *277:49 0.000529598
63 *276:10 *277:19 0
*RES
1 *1749:Y *277:8 23.6977 
2 *277:8 *1797:A 20.3193 
3 *277:8 *277:19 24.7998 
4 *277:19 *1838:D 42.5029 
5 *277:19 *277:34 3.0694 
6 *277:34 *1750:B 40.3193 
7 *277:34 *277:49 4.9749 
8 *277:49 *277:51 0.5356 
9 *277:51 *1852:B 41.8334 
10 *277:51 *277:68 33.6269 
11 *277:68 *1869:C 20.3193 
12 *277:68 *277:81 2.2866 
13 *277:81 *277:93 43.3166 
14 *277:93 *1823:D 20 
15 *277:81 *1868:C 20.3193 
16 *277:49 *1853:B 43.7956 
*END

*D_NET *278 0.0147264
*CONN
*I *1808:A_N I *D sg13g2_nand2b_1
*I *1807:A I *D sg13g2_nor2_1
*I *1752:B I *D sg13g2_or2_1
*I *1751:B I *D sg13g2_nor2_1
*I *1750:Y O *D sg13g2_nand2_1
*CAP
1 *1808:A_N 0
2 *1807:A 0
3 *1752:B 7.78043e-05
4 *1751:B 5.24642e-05
5 *1750:Y 0.000524282
6 *278:24 0.000375633
7 *278:20 0.00302621
8 *278:18 0.00296771
9 *278:14 0.000232322
10 *278:8 0.000569742
11 *278:8 *287:38 0
12 *278:8 *288:37 0
13 *278:8 *288:43 1.54008e-05
14 *278:14 *345:38 0.00023464
15 *278:14 *346:42 0.000234224
16 *278:18 *288:37 1.54008e-05
17 *278:20 *288:43 0
18 *278:20 *288:45 0
19 *278:20 *288:47 0
20 *278:20 *301:22 0.00556324
21 *278:20 *316:24 0.000341205
22 *278:20 *346:60 0
23 output_no[29] *278:24 0
24 output_no[30] *278:24 0
25 output_no[45] *278:18 0.00030506
26 output_o[30] *1751:B 0
27 output_o[30] *278:24 0
28 output_o[31] *1752:B 0
29 output_o[31] *278:24 0
30 *63:12 *1752:B 1.53556e-05
31 *203:10 *278:20 0
32 *207:10 *278:18 0.000175693
33 *273:22 *1751:B 0
*RES
1 *1750:Y *278:8 24.1303 
2 *278:8 *278:14 41.0918 
3 *278:14 *278:18 22.0497 
4 *278:18 *278:20 34.2166 
5 *278:20 *278:24 21.9617 
6 *278:24 *1751:B 20.5974 
7 *278:24 *1752:B 20.5162 
8 *278:14 *1807:A 20 
9 *278:8 *1808:A_N 20 
*END

*D_NET *279 0.00712141
*CONN
*I *1841:D I *D sg13g2_nand4_1
*I *1800:A I *D sg13g2_nand2_1
*I *1755:B I *D sg13g2_nand2_1
*I *1857:B I *D sg13g2_nand3_1
*I *1856:B I *D sg13g2_and3_1
*I *1787:C I *D sg13g2_nand3_1
*I *1826:D I *D sg13g2_nand4_1
*I *1775:C I *D sg13g2_nand3_1
*I *1753:Y O *D sg13g2_nor2_1
*CAP
1 *1841:D 0.000113589
2 *1800:A 0
3 *1755:B 0.000236375
4 *1857:B 0
5 *1856:B 0
6 *1787:C 0
7 *1826:D 0
8 *1775:C 0.000159209
9 *1753:Y 6.4801e-05
10 *279:62 0.000480413
11 *279:56 0.000700641
12 *279:43 0.000646246
13 *279:34 0.000341374
14 *279:25 0.000284656
15 *279:21 0.000349506
16 *279:8 0.000327003
17 *1755:B *1857:C 0
18 *1755:B *321:10 0.000339008
19 *1775:C *319:8 0
20 *279:25 *281:14 0.000184825
21 *279:34 *281:14 0.000431631
22 *279:43 *281:14 0.000487335
23 *279:56 *281:14 0.000485598
24 *279:56 *298:50 0
25 *279:56 *299:8 0
26 *279:62 *298:37 0.000448012
27 *1755:A *1755:B 0
28 *1775:B *1775:C 0.000144814
29 *1826:B *279:25 7.61954e-05
30 *1826:C *1841:D 7.92265e-05
31 *1841:C *1841:D 1.54008e-05
32 *3:67 *1841:D 6.46834e-05
33 *6:27 *1775:C 0.000238608
34 *6:27 *1841:D 7.62452e-05
35 *6:27 *279:21 0.000346014
36 *270:12 *1755:B 0
37 *276:10 *279:62 0
*RES
1 *1753:Y *279:8 40.5356 
2 *279:8 *1775:C 42.06 
3 *279:8 *279:21 1.5862 
4 *279:21 *279:25 1.8128 
5 *279:25 *1826:D 40 
6 *279:25 *279:34 2.0806 
7 *279:34 *1787:C 40 
8 *279:34 *279:43 2.3278 
9 *279:43 *1856:B 40 
10 *279:43 *279:56 24.5938 
11 *279:56 *279:62 42.575 
12 *279:62 *1857:B 20 
13 *279:62 *1755:B 22.6162 
14 *279:56 *1800:A 20 
15 *279:21 *1841:D 41.3184 
*END

*D_NET *280 0.0196708
*CONN
*I *1810:A I *D sg13g2_nand2_1
*I *1872:B I *D sg13g2_and2_1
*I *1873:B I *D sg13g2_nand2_1
*I *1757:B I *D sg13g2_nand2_1
*I *1754:Y O *D sg13g2_nor4_1
*CAP
1 *1810:A 0
2 *1872:B 3.34444e-05
3 *1873:B 0
4 *1757:B 8.67426e-05
5 *1754:Y 0.00038563
6 *280:55 6.907e-05
7 *280:40 0.000261649
8 *280:27 0.000152552
9 *280:19 0.00225468
10 *280:17 0.00194299
11 *280:8 0.000472372
12 *1757:B *284:10 0
13 *1872:B *324:12 4.77425e-05
14 *280:8 *284:10 0
15 *280:19 *1805:B 0
16 *280:19 *1806:B 0.000500215
17 *280:19 *281:14 0
18 *280:19 *281:23 0
19 *280:19 *287:23 0.000212648
20 *280:19 *296:28 0.00375592
21 *280:19 *297:36 0
22 *280:19 *298:18 0
23 *280:27 *2046:A 0
24 *280:27 *287:38 0
25 *280:27 *329:23 0
26 *280:40 *287:23 0.000495392
27 *280:40 *324:12 6.46834e-05
28 *1741:B *280:19 0.00034245
29 *1754:C *280:8 0
30 *1754:D *280:8 0
31 *1756:A *280:8 0
32 *1872:A *280:55 4.77425e-05
33 *208:14 *280:27 0.000112426
34 *269:36 *280:19 0
35 *272:27 *280:19 0.00742009
36 *272:27 *280:40 0.000472196
37 *272:27 *280:55 0.000181192
38 *277:49 *280:27 0.000177812
39 *277:49 *280:55 0.000181192
*RES
1 *1754:Y *280:8 23.7595 
2 *280:8 *1757:B 20.7519 
3 *280:8 *280:17 20 
4 *280:17 *280:19 36.4414 
5 *280:19 *280:27 41.5965 
6 *280:27 *1873:B 40 
7 *280:19 *280:40 22.8634 
8 *280:40 *1872:B 20.3193 
9 *280:40 *280:55 41.1639 
10 *280:55 *1810:A 20 
*END

*D_NET *281 0.0126218
*CONN
*I *1809:A I *D sg13g2_nor2_1
*I *1756:B I *D sg13g2_nor2_1
*I *1755:Y O *D sg13g2_nand2_1
*CAP
1 *1809:A 0
2 *1756:B 0
3 *1755:Y 0
4 *281:23 0.00112187
5 *281:14 0.00161017
6 *281:6 0.00273204
7 *281:14 *290:36 0
8 *281:14 *294:38 0.0020113
9 *281:14 *297:8 0
10 *281:14 *297:36 0
11 *1794:A *281:23 0.000345533
12 *3:167 *281:23 0.00045472
13 *3:178 *281:23 0
14 *6:37 *281:14 0
15 *7:60 *281:14 0.00045472
16 *7:66 *281:14 0.000671162
17 *275:21 *281:23 0.00029161
18 *275:32 *281:23 0.000724464
19 *275:47 *281:23 0.000614796
20 *279:25 *281:14 0.000184825
21 *279:34 *281:14 0.000431631
22 *279:43 *281:14 0.000487335
23 *279:56 *281:14 0.000485598
24 *280:19 *281:14 0
25 *280:19 *281:23 0
*RES
1 *1755:Y *281:6 40 
2 *281:6 *281:14 42.4952 
3 *281:14 *1756:B 20 
4 *281:6 *281:23 32.7102 
5 *281:23 *1809:A 20 
*END

*D_NET *282 0.00324994
*CONN
*I *1830:A_N I *D sg13g2_nand3b_1
*I *1778:B I *D sg13g2_nor2_1
*I *1829:C I *D sg13g2_nor3_1
*I *1758:Y O *D sg13g2_nand3_1
*CAP
1 *1830:A_N 0.000247459
2 *1778:B 0
3 *1829:C 0
4 *1758:Y 0.000413319
5 *282:20 0.000174935
6 *282:14 0.000515732
7 *282:10 0.00100158
8 *282:10 *313:45 0
9 *282:14 *294:6 8.00842e-05
10 *282:14 *294:38 0.00016032
11 *282:14 *313:45 0
12 *282:20 *319:10 0
13 *1778:A *282:14 0
14 *3:41 *1830:A_N 4.77425e-05
15 *4:32 *282:10 0
16 *6:53 *282:10 0
17 *127:12 *282:20 0.000608768
*RES
1 *1758:Y *282:10 43.5741 
2 *282:10 *282:14 23.1312 
3 *282:14 *282:20 42.8222 
4 *282:20 *1829:C 20 
5 *282:14 *1778:B 20 
6 *282:10 *1830:A_N 42.06 
*END

*D_NET *283 0.0162245
*CONN
*I *2048:B I *D sg13g2_nand2_1
*I *1815:B I *D sg13g2_nand2_1
*I *1766:A I *D sg13g2_nand2_1
*I *1759:X O *D sg13g2_and4_1
*CAP
1 *2048:B 0
2 *1815:B 0.000195483
3 *1766:A 0.000199543
4 *1759:X 0.00012129
5 *283:46 0.000268316
6 *283:31 0.000616859
7 *283:27 0.00246204
8 *283:25 0.00230898
9 *283:14 0.000687232
10 *283:10 0.000608979
11 *1815:B *294:16 0.000273509
12 *283:27 *294:10 0
13 *283:27 *296:14 0
14 *283:27 *296:28 0
15 *283:27 *297:8 0.0053255
16 *283:31 *294:16 0.000112263
17 *283:31 *306:27 0
18 *283:46 *290:10 0.000234224
19 output_o[31] *283:14 0
20 *1815:A *1815:B 0
21 *1815:A *283:31 0
22 *1815:A *283:46 0
23 *3:26 *283:27 0.00055911
24 *4:9 *283:27 0
25 *5:13 *283:10 5.28594e-05
26 *5:19 *283:10 0.0001816
27 *6:37 *283:14 0
28 *127:12 *283:46 0.000234224
29 *268:21 *283:27 0.000827479
30 *274:10 *283:27 0.000557058
31 *274:16 *283:27 0.000397963
*RES
1 *1759:X *283:10 41.442 
2 *283:10 *283:14 24.2127 
3 *283:14 *1766:A 21.751 
4 *283:14 *283:25 20 
5 *283:25 *283:27 30.7558 
6 *283:27 *283:31 21.4008 
7 *283:31 *1815:B 21.8334 
8 *283:31 *283:46 42.9252 
9 *283:46 *2048:B 20 
*END

*D_NET *284 0.0244802
*CONN
*I *1765:A I *D sg13g2_nor2_1
*I *1814:B I *D sg13g2_nor2_1
*I *2047:B I *D sg13g2_nor2_1
*I *1760:Y O *D sg13g2_nand4_1
*CAP
1 *1765:A 0.000537053
2 *1814:B 5.37171e-05
3 *2047:B 0
4 *1760:Y 0.000743665
5 *284:26 0.000126985
6 *284:18 0.000914075
7 *284:12 0.00172818
8 *284:10 0.00216809
9 *1765:A *308:29 0.00112098
10 *1765:A *319:10 0.00114307
11 *1814:B *295:29 1.54008e-05
12 *1814:B *306:27 8.00842e-05
13 *284:12 *308:14 0.00228942
14 *284:12 *308:29 0.0025808
15 *284:12 *319:10 0.00487023
16 *284:18 *308:14 0.00242331
17 *284:18 *308:22 0
18 *284:18 *312:166 0
19 *284:18 *319:10 0.00274523
20 *284:26 *307:16 0.000234459
21 *284:26 *308:22 0.000127744
22 output_no[31] *1765:A 0
23 output_no[32] *1765:A 0
24 output_o[31] *1765:A 0
25 *1754:D *284:10 0
26 *1757:A *284:10 3.21969e-05
27 *1757:B *284:10 0
28 *2047:A *284:26 0
29 *273:22 *284:10 0.000176323
30 *274:40 *284:10 0.00036918
31 *280:8 *284:10 0
*RES
1 *1760:Y *284:10 47.4057 
2 *284:10 *284:12 22.5982 
3 *284:12 *284:18 34.9762 
4 *284:18 *284:26 41.6274 
5 *284:26 *2047:B 20 
6 *284:12 *1814:B 40.5356 
7 *284:10 *1765:A 48.343 
*END

*D_NET *285 0.00719893
*CONN
*I *1946:B I *D sg13g2_nand2b_1
*I *1764:B I *D sg13g2_nand2b_1
*I *1761:Y O *D sg13g2_nor2b_1
*CAP
1 *1946:B 0.000273127
2 *1764:B 0
3 *1761:Y 0
4 *285:12 0.00106118
5 *285:6 0.00133431
6 *1946:B *330:31 4.77425e-05
7 *285:12 *327:45 0.000767034
8 *285:12 *334:29 0
9 *2013:B *285:12 0.000288087
10 *8:36 *1946:B 0.000288087
11 *8:57 *285:12 0.00012816
12 *8:59 *285:12 0.000607938
13 *8:61 *285:12 0.00012816
14 *9:17 *1946:B 0.000394151
15 *10:64 *1946:B 1.54008e-05
16 *10:75 *1946:B 8.00842e-05
17 *10:92 *285:12 0.00178548
18 *271:14 *285:12 0
*RES
1 *1761:Y *285:6 40 
2 *285:6 *285:12 34.2655 
3 *285:12 *1764:B 20 
4 *285:6 *1946:B 43.4505 
*END

*D_NET *286 0.0434501
*CONN
*I *1945:B I *D sg13g2_nor2_1
*I *1763:B I *D sg13g2_nor2_1
*I *1762:Y O *D sg13g2_nand2b_1
*CAP
1 *1945:B 0.000378974
2 *1763:B 5.41612e-05
3 *1762:Y 0.000131582
4 *286:39 0.00647487
5 *286:37 0.00720357
6 *286:18 0.000168838
7 *286:10 0.00139626
8 *286:6 0.00252084
9 *286:10 *311:16 0.00107837
10 *286:10 *327:45 0
11 *286:10 *331:27 0.00433585
12 *286:18 *330:14 8.00842e-05
13 *286:37 *309:46 0
14 *286:37 *314:75 0.0021061
15 *286:37 *320:58 0.00012816
16 *286:37 *320:62 0
17 *286:37 *331:27 0.00018128
18 *286:39 *307:81 0.00221824
19 *286:39 *307:106 0
20 *286:39 *308:71 0.00659605
21 *286:39 *309:46 0.000561879
22 *286:39 *310:122 0
23 *286:39 *314:75 0
24 *286:39 *314:119 0
25 *286:39 *319:116 0.00616765
26 *1764:A_N *286:10 0.000180302
27 *1865:C *286:18 8.00842e-05
28 *10:32 *1945:B 0
29 *10:92 *286:10 0
30 *271:14 *286:10 0.000662347
31 *271:46 *286:39 0
32 *272:12 *286:10 0
33 *272:12 *286:18 0.000334727
34 *277:68 *286:10 7.51285e-05
35 *277:68 *286:18 0.000334727
*RES
1 *1762:Y *286:6 21.1845 
2 *286:6 *286:10 40.1262 
3 *286:10 *286:18 42.1038 
4 *286:18 *1763:B 40.4403 
5 *286:6 *286:37 32.5763 
6 *286:37 *286:39 72.5326 
7 *286:39 *1945:B 43.1312 
*END

*D_NET *287 0.0269816
*CONN
*I *1808:B I *D sg13g2_nand2b_1
*I *1804:B I *D sg13g2_nand2b_1
*I *1786:A I *D sg13g2_nand2_1
*I *1785:A I *D sg13g2_and2_1
*I *1783:A I *D sg13g2_nand2_1
*I *1782:A I *D sg13g2_and2_1
*I *1780:A I *D sg13g2_nand2_1
*I *1766:B I *D sg13g2_nand2_1
*I *1779:A I *D sg13g2_and2_1
*I *1806:B I *D sg13g2_nand2b_1
*I *1810:B I *D sg13g2_nand2_1
*I *1763:Y O *D sg13g2_nor2_1
*CAP
1 *1808:B 0
2 *1804:B 5.33597e-05
3 *1786:A 8.36903e-05
4 *1785:A 0.000445921
5 *1783:A 0
6 *1782:A 0.00024943
7 *1780:A 0
8 *1766:B 0
9 *1779:A 0
10 *1806:B 0.000189044
11 *1810:B 3.7009e-05
12 *1763:Y 0.000438903
13 *287:85 0.000590484
14 *287:72 0.00121507
15 *287:66 0.000812889
16 *287:64 0.000558648
17 *287:60 0.000318601
18 *287:54 0.000710869
19 *287:52 0.00109155
20 *287:46 0.00122862
21 *287:38 0.000796168
22 *287:23 0.00105087
23 *287:10 0.000337326
24 *287:8 0.000438903
25 *1782:A *1782:B 9.69501e-05
26 *1782:A *1783:B 0.000240377
27 *1782:A *312:6 0.000112426
28 *1782:A *312:14 0.00014391
29 *1785:A *1785:B 0
30 *1785:A *1786:B 0.000530713
31 *1785:A *320:22 0.000466056
32 *1806:B *1805:B 0.000287672
33 *1806:B *288:20 0.000212543
34 *1806:B *318:10 0.000144495
35 *287:8 *298:144 0.000284804
36 *287:8 *334:29 0
37 *287:23 *288:18 0.000476523
38 *287:23 *288:20 0.000496252
39 *287:38 *2046:A 0
40 *287:46 *326:27 0.000928476
41 *287:46 *345:38 0.000925301
42 *287:52 *288:43 0.00018211
43 *287:52 *288:45 0.000554077
44 *287:52 *288:47 0.00034112
45 *287:52 *288:53 0.000391517
46 *287:52 *326:12 0.000128355
47 *287:52 *326:27 0.00277422
48 *287:54 *326:12 0.000181192
49 *287:60 *326:12 0.000341216
50 *287:60 *345:54 0.000181279
51 *287:64 *288:73 0
52 *287:64 *299:14 0
53 *287:66 *288:73 0
54 *287:66 *299:14 0
55 *287:72 *1780:B 0
56 *287:72 *288:73 0
57 *287:72 *293:8 0
58 *287:72 *299:14 0
59 *287:85 *294:42 1.54008e-05
60 output_o[36] *1782:A 0
61 output_o[37] *287:60 0.00014391
62 output_o[38] *1786:A 0.00014391
63 *1750:B *287:38 4.76977e-05
64 *1852:B *287:23 7.98567e-05
65 *1853:B *287:8 0.00050059
66 *3:238 *287:8 0.000127472
67 *68:8 *287:66 0.000212543
68 *68:8 *287:72 7.56299e-05
69 *69:8 *287:64 7.52149e-05
70 *70:10 *1786:A 0.000111568
71 *127:12 *287:85 0.0012986
72 *208:14 *287:38 0
73 *270:26 *287:52 0
74 *270:26 *287:54 0
75 *270:26 *287:60 0
76 *272:12 *287:8 7.48178e-05
77 *272:25 *287:23 0.00012816
78 *276:10 *287:85 0
79 *277:68 *287:8 0.00166903
80 *278:8 *287:38 0
81 *280:19 *1806:B 0.000500215
82 *280:19 *287:23 0.000212648
83 *280:27 *287:38 0
84 *280:40 *287:23 0.000495392
*RES
1 *1763:Y *287:8 47.7662 
2 *287:8 *287:10 20 
3 *287:10 *1810:B 20.3193 
4 *287:10 *287:23 25.3045 
5 *287:23 *1806:B 43.296 
6 *287:23 *287:38 24.7648 
7 *287:38 *287:46 44.841 
8 *287:46 *287:52 33.9874 
9 *287:52 *287:54 0.8446 
10 *287:54 *287:60 22.5544 
11 *287:60 *287:64 21.0918 
12 *287:64 *287:66 1.8334 
13 *287:66 *287:72 24.9028 
14 *287:72 *1779:A 20 
15 *287:72 *287:85 46.5714 
16 *287:85 *1766:B 20 
17 *287:66 *1780:A 40 
18 *287:64 *1782:A 42.6986 
19 *287:60 *1783:A 20 
20 *287:54 *1785:A 44.7792 
21 *287:52 *1786:A 40.9682 
22 *287:46 *1804:B 20.5356 
23 *287:38 *1808:B 20 
*END

*D_NET *288 0.036203
*CONN
*I *1809:B I *D sg13g2_nor2_1
*I *1807:B I *D sg13g2_nor2_1
*I *1803:B I *D sg13g2_nor2_1
*I *1802:A I *D sg13g2_or2_1
*I *1801:A I *D sg13g2_nor2_1
*I *1799:A I *D sg13g2_or2_1
*I *1798:A I *D sg13g2_nor2_1
*I *1795:A I *D sg13g2_nor2_1
*I *1796:A I *D sg13g2_or2_1
*I *1793:A I *D sg13g2_or2_1
*I *1792:A I *D sg13g2_nor2_1
*I *1789:A I *D sg13g2_or2_1
*I *1788:A I *D sg13g2_nor2_1
*I *1777:A I *D sg13g2_or2_1
*I *1776:A I *D sg13g2_nor2_1
*I *1774:A I *D sg13g2_or2_1
*I *1773:A I *D sg13g2_nor2_1
*I *1770:A I *D sg13g2_or2_1
*I *1769:A I *D sg13g2_nor2_1
*I *1765:B I *D sg13g2_nor2_1
*I *1805:B I *D sg13g2_nor2_1
*I *1764:Y O *D sg13g2_nand2b_1
*CAP
1 *1809:B 0.00010339
2 *1807:B 0
3 *1803:B 0.000130247
4 *1802:A 0
5 *1801:A 0
6 *1799:A 0.000143041
7 *1798:A 0
8 *1795:A 5.67579e-05
9 *1796:A 0.000211788
10 *1793:A 3.00936e-05
11 *1792:A 0.000267641
12 *1789:A 0.000495226
13 *1788:A 2.55048e-05
14 *1777:A 0
15 *1776:A 0
16 *1774:A 0
17 *1773:A 0
18 *1770:A 0.000100925
19 *1769:A 0
20 *1765:B 0.000192341
21 *1805:B 0.000240549
22 *1764:Y 0.000187078
23 *288:261 0.000299122
24 *288:248 0.000416791
25 *288:230 0.000223052
26 *288:200 0.000306671
27 *288:127 0.000222824
28 *288:110 0.000657319
29 *288:101 0.000935059
30 *288:81 0.000410291
31 *288:79 0.000803028
32 *288:77 0.000339441
33 *288:73 0.000799308
34 *288:65 0.000738669
35 *288:63 0.00074217
36 *288:61 0.000495746
37 *288:59 0.000270025
38 *288:57 0.0003003
39 *288:53 0.000507974
40 *288:47 0.000468931
41 *288:45 0.000401357
42 *288:43 0.000850642
43 *288:37 0.00109821
44 *288:20 0.000933368
45 *288:18 0.00185944
46 *288:8 0.00179958
47 *1788:A *326:10 4.77425e-05
48 *1789:A *1788:B 0.000530713
49 *1789:A *1789:B 0
50 *1789:A *346:52 3.23417e-05
51 *1789:A *346:58 4.77425e-05
52 *1792:A *1792:B 0.000160168
53 *1792:A *299:8 7.98567e-05
54 *1796:A *1796:B 0.000175693
55 *1796:A *1857:C 0
56 *1796:A *321:10 0.000144657
57 *288:18 *2041:A 0.000445348
58 *288:18 *309:12 0
59 *288:18 *309:40 0
60 *288:18 *309:46 0
61 *288:18 *311:40 0
62 *288:18 *331:27 0.00187628
63 *288:37 *316:10 0.000690544
64 *288:43 *316:24 0
65 *288:43 *318:22 0.000234311
66 *288:43 *326:27 0
67 *288:57 *326:27 0
68 *288:57 *345:46 0.000180952
69 *288:59 *326:27 0
70 *288:59 *345:46 0.000502289
71 *288:61 *326:27 0
72 *288:61 *345:46 0.000126358
73 *288:63 *326:27 0
74 *288:63 *345:46 0.000445791
75 *288:65 *326:27 0
76 *288:65 *345:46 0.000181608
77 *288:73 *293:14 1.54008e-05
78 *288:73 *293:22 0
79 *288:73 *299:14 0
80 *288:73 *326:12 0.00167928
81 *288:73 *326:27 7.51285e-05
82 *288:73 *345:46 0
83 *288:77 *299:14 0
84 *288:77 *326:12 0
85 *288:79 *299:14 0
86 *288:79 *326:12 0
87 *288:81 *299:14 0
88 *288:81 *326:12 0
89 *288:110 *290:40 0
90 *288:127 *292:32 1.54008e-05
91 *288:127 *292:42 0
92 *288:230 *300:10 7.48209e-05
93 *288:230 *312:20 7.48209e-05
94 *288:261 *2039:A 1.54282e-05
95 *288:261 *2039:B 0
96 *288:261 *300:10 0.000272718
97 *288:261 *308:29 0.000181695
98 output_no[33] *288:101 0.000530685
99 output_no[34] *288:127 0
100 output_no[39] *1792:A 0
101 output_no[41] *288:230 0.000112426
102 output_o[34] *288:101 0
103 output_o[34] *288:110 0
104 output_o[43] *288:248 0.00011101
105 output_o[44] *1803:B 0.00011101
106 *1750:A *288:37 0.000176205
107 *1764:A_N *288:8 0
108 *1805:A *1805:B 0
109 *1806:B *1805:B 0.000287672
110 *1806:B *288:20 0.000212543
111 *1838:D *1805:B 0.000144584
112 *1869:B *288:18 0.000106064
113 *1873:A *1809:B 0.000176252
114 *3:52 *288:127 0.000345425
115 *68:8 *288:73 0.000288173
116 *69:8 *288:73 0.000181279
117 *203:10 *288:47 0
118 *203:10 *288:53 0
119 *207:10 *288:43 0.00011101
120 *208:14 *1809:B 0.00014391
121 *255:16 *1789:A 8.50825e-05
122 *255:18 *288:127 0.000345425
123 *269:12 *288:18 0.000769622
124 *269:24 *288:18 0.0010541
125 *269:24 *288:20 0.000641317
126 *269:26 *1805:B 0.000449137
127 *269:26 *288:20 7.51285e-05
128 *269:122 *288:18 0.00015983
129 *270:12 *1796:A 0
130 *270:12 *288:230 0.000112426
131 *270:26 *288:53 0.000287256
132 *272:25 *288:18 0.000342059
133 *278:8 *288:37 0
134 *278:8 *288:43 1.54008e-05
135 *278:18 *288:37 1.54008e-05
136 *278:20 *288:43 0
137 *278:20 *288:45 0
138 *278:20 *288:47 0
139 *280:19 *1805:B 0
140 *287:23 *288:18 0.000476523
141 *287:23 *288:20 0.000496252
142 *287:52 *288:43 0.00018211
143 *287:52 *288:45 0.000554077
144 *287:52 *288:47 0.00034112
145 *287:52 *288:53 0.000391517
146 *287:64 *288:73 0
147 *287:66 *288:73 0
148 *287:72 *288:73 0
*RES
1 *1764:Y *288:8 41.6171 
2 *288:8 *288:18 20.7236 
3 *288:18 *288:20 3.3166 
4 *288:20 *1805:B 43.2651 
5 *288:20 *288:37 25.4281 
6 *288:37 *288:43 25.4899 
7 *288:43 *288:45 2.575 
8 *288:45 *288:47 1.5862 
9 *288:47 *288:53 22.8016 
10 *288:53 *288:57 20.8446 
11 *288:57 *288:59 2.3278 
12 *288:59 *288:61 0.5974 
13 *288:61 *288:63 2.0806 
14 *288:63 *288:65 0.8446 
15 *288:65 *288:73 28.8683 
16 *288:73 *288:77 21.339 
17 *288:77 *288:79 1.5862 
18 *288:79 *288:81 1.8334 
19 *288:81 *1765:B 41.5862 
20 *288:81 *1769:A 40 
21 *288:79 *288:101 23.9964 
22 *288:101 *1770:A 21.0918 
23 *288:101 *288:110 3.9964 
24 *288:110 *1773:A 20 
25 *288:110 *288:127 43.0076 
26 *288:127 *1774:A 20 
27 *288:77 *1776:A 40 
28 *288:73 *1777:A 20 
29 *288:65 *1788:A 40.3193 
30 *288:63 *1789:A 45.1191 
31 *288:61 *1792:A 43.1003 
32 *288:59 *1793:A 40.4661 
33 *288:57 *288:200 20.5356 
34 *288:200 *1796:A 22.3999 
35 *288:200 *1795:A 20.6695 
36 *288:53 *288:230 42.4205 
37 *288:230 *1798:A 20 
38 *288:47 *1799:A 41.1845 
39 *288:45 *288:248 21.1845 
40 *288:248 *1801:A 20 
41 *288:248 *288:261 43.1106 
42 *288:261 *1802:A 20 
43 *288:43 *1803:B 41.1845 
44 *288:37 *1807:B 20 
45 *288:18 *1809:B 41.1845 
*END

*D_NET *289 0.00533144
*CONN
*I *1818:C I *D sg13g2_nor3_1
*I *1768:B I *D sg13g2_or2_1
*I *1833:C I *D sg13g2_nor3_1
*I *1781:B I *D sg13g2_nor2_1
*I *1767:Y O *D sg13g2_nand3b_1
*CAP
1 *1818:C 0
2 *1768:B 8.64097e-05
3 *1833:C 0
4 *1781:B 0.000216602
5 *1767:Y 0.00040284
6 *289:16 0.000402767
7 *289:12 0.000315357
8 *289:10 0.000445624
9 *1768:B *290:10 8.00842e-05
10 *1781:B *315:8 0
11 *289:10 *319:10 0
12 *289:12 *290:10 5.30319e-05
13 *289:12 *319:10 0
14 *289:16 *290:10 0.00103604
15 *1768:A *1768:B 0
16 *1781:A *1781:B 0
17 *1829:A *289:10 0.000240377
18 *1833:B *1781:B 1.54008e-05
19 *127:12 *289:10 0.000820515
20 *127:12 *289:12 0.000181608
21 *127:12 *289:16 0.00103479
*RES
1 *1767:Y *289:10 45.4281 
2 *289:10 *289:12 0.8446 
3 *289:12 *289:16 24.7998 
4 *289:16 *1781:B 21.8334 
5 *289:16 *1833:C 20 
6 *289:12 *1768:B 40.8858 
7 *289:10 *1818:C 40 
*END

*D_NET *290 0.0125
*CONN
*I *1770:B I *D sg13g2_or2_1
*I *1769:B I *D sg13g2_nor2_1
*I *2050:B I *D sg13g2_or2_1
*I *2049:B I *D sg13g2_nor2_1
*I *1768:X O *D sg13g2_or2_1
*CAP
1 *1770:B 0
2 *1769:B 0.000593224
3 *2050:B 2.9025e-05
4 *2049:B 0.000124698
5 *1768:X 0
6 *290:40 0.000829555
7 *290:36 0.00247022
8 *290:14 0.00051702
9 *290:10 0.00233117
10 *290:4 0.00420176
11 *290:10 *319:10 0
12 *290:14 *292:14 0
13 *290:14 *308:14 0
14 *290:36 *294:38 0
15 *290:36 *297:8 0
16 output_no[32] *1769:B 0
17 output_no[33] *1769:B 0
18 *1768:B *290:10 8.00842e-05
19 *1768:A *290:36 0
20 *1818:A *290:36 0
21 *2049:A *2049:B 0
22 *2050:A *2049:B 0
23 *2051:A *290:14 0
24 *4:9 *290:36 0
25 *127:12 *290:10 0
26 *267:71 *290:36 0
27 *281:14 *290:36 0
28 *283:46 *290:10 0.000234224
29 *288:110 *290:40 0
30 *289:12 *290:10 5.30319e-05
31 *289:16 *290:10 0.00103604
*RES
1 *1768:X *290:4 20 
2 *290:4 *290:10 40.1056 
3 *290:10 *290:14 23.3475 
4 *290:14 *2049:B 21.3802 
5 *290:14 *2050:B 20.3502 
6 *290:4 *290:36 42.454 
7 *290:36 *290:40 22.0497 
8 *290:40 *1769:B 25.974 
9 *290:40 *1770:B 20 
*END

*D_NET *291 0.00476335
*CONN
*I *1822:C I *D sg13g2_nor3_1
*I *1772:B I *D sg13g2_or2_1
*I *1784:B I *D sg13g2_nor2_1
*I *1837:C I *D sg13g2_nor3_1
*I *1771:Y O *D sg13g2_nand3b_1
*CAP
1 *1822:C 0
2 *1772:B 8.76289e-05
3 *1784:B 0
4 *1837:C 5.38837e-05
5 *1771:Y 0.000111433
6 *291:14 0.000332699
7 *291:12 0.000478926
8 *291:10 0.000223915
9 *1772:A *1772:B 1.54008e-05
10 *3:37 *1837:C 0.000127262
11 *3:37 *291:10 0.000323667
12 *3:37 *291:12 0.000648708
13 *3:37 *291:14 0.000971667
14 *4:17 *291:10 8.00842e-05
15 *255:18 *1837:C 0
16 *267:8 *291:14 0.000184311
17 *267:32 *291:12 0.000346423
18 *267:32 *291:14 0.000107631
19 *267:43 *291:10 0.000183827
20 *267:43 *291:12 0.000324333
21 *267:58 *291:10 0.000161555
*RES
1 *1771:Y *291:10 42.1218 
2 *291:10 *291:12 3.0694 
3 *291:12 *291:14 4.5526 
4 *291:14 *1837:C 40.5974 
5 *291:14 *1784:B 40 
6 *291:12 *1772:B 40.8858 
7 *291:10 *1822:C 40 
*END

*D_NET *292 0.0163145
*CONN
*I *1774:B I *D sg13g2_or2_1
*I *1773:B I *D sg13g2_nor2_1
*I *2051:B I *D sg13g2_nor2_1
*I *2052:B I *D sg13g2_or2_1
*I *1772:X O *D sg13g2_or2_1
*CAP
1 *1774:B 0
2 *1773:B 0
3 *2051:B 0
4 *2052:B 0.000174717
5 *1772:X 3.68563e-05
6 *292:42 0.000106352
7 *292:32 0.00173703
8 *292:14 0.00175641
9 *292:8 0.00324924
10 *2052:B *2054:B 0
11 output_o[18] *2052:B 0.000240481
12 output_o[34] *292:42 8.00842e-05
13 *3:52 *292:42 0.000130011
14 *5:13 *292:32 0
15 *6:45 *292:32 0
16 *255:18 *292:14 0.00348073
17 *255:18 *292:32 0.00517717
18 *266:14 *292:14 0
19 *267:71 *292:42 0.000129968
20 *288:127 *292:32 1.54008e-05
21 *288:127 *292:42 0
22 *290:14 *292:14 0
*RES
1 *1772:X *292:8 40.3193 
2 *292:8 *292:14 42.5158 
3 *292:14 *2052:B 21.8334 
4 *292:14 *2051:B 20 
5 *292:8 *292:32 44.3698 
6 *292:32 *292:42 41.4832 
7 *292:42 *1773:B 20 
8 *292:32 *1774:B 20 
*END

*D_NET *293 0.0201581
*CONN
*I *1777:B I *D sg13g2_or2_1
*I *1776:B I *D sg13g2_nor2_1
*I *2054:B I *D sg13g2_or2_1
*I *2053:B I *D sg13g2_nor2_1
*I *1775:Y O *D sg13g2_nand3_1
*CAP
1 *1777:B 0
2 *1776:B 0
3 *2054:B 7.88654e-05
4 *2053:B 0
5 *1775:Y 0.000658755
6 *293:34 0.000122028
7 *293:28 0.000338645
8 *293:24 0.00237898
9 *293:22 0.00241785
10 *293:14 0.00030096
11 *293:8 0.000783088
12 *293:8 *294:42 0
13 *293:22 *326:12 0.000235153
14 *293:22 *345:54 0.000197041
15 *293:22 *345:56 0
16 *293:24 *313:26 0
17 *293:24 *315:14 0
18 *293:24 *326:12 0
19 *293:24 *345:56 0.00652289
20 *293:34 *307:16 0.000288587
21 output_no[16] *293:24 0.000289002
22 output_no[19] *293:28 0
23 output_no[34] *293:8 0
24 output_no[34] *293:22 0
25 output_no[35] *293:8 0
26 *2048:A *2054:B 0
27 *2052:B *2054:B 0
28 *2054:A *293:28 8.00842e-05
29 *53:10 *293:24 0.000288087
30 *195:10 *293:22 7.91813e-05
31 *273:28 *293:24 0.00389034
32 *273:30 *293:24 0.000372556
33 *273:32 *293:24 0.000106064
34 *273:34 *293:24 0.000426659
35 *273:40 *293:24 0.000287845
36 *274:76 *293:34 0
37 *287:72 *293:8 0
38 *288:73 *293:14 1.54008e-05
39 *288:73 *293:22 0
*RES
1 *1775:Y *293:8 25.6753 
2 *293:8 *293:14 1.4832 
3 *293:14 *293:22 22.3793 
4 *293:22 *293:24 36.9358 
5 *293:24 *293:28 21.1845 
6 *293:28 *293:34 41.339 
7 *293:34 *2053:B 20 
8 *293:28 *2054:B 20.8858 
9 *293:14 *1776:B 20 
10 *293:8 *1777:B 20 
*END

*D_NET *294 0.0207142
*CONN
*I *1780:B I *D sg13g2_nand2_1
*I *1779:B I *D sg13g2_and2_1
*I *2055:B I *D sg13g2_and2_1
*I *2056:B I *D sg13g2_nand2_1
*I *1778:Y O *D sg13g2_nor2_1
*CAP
1 *1780:B 0.000536507
2 *1779:B 0
3 *2055:B 0
4 *2056:B 0
5 *1778:Y 4.37077e-05
6 *294:42 0.000741054
7 *294:38 0.00125213
8 *294:22 9.17988e-05
9 *294:16 0.000620143
10 *294:10 0.00192334
11 *294:6 0.00248629
12 *1780:B *319:8 0
13 *294:10 *296:14 0.000817911
14 *294:10 *296:28 0.00271649
15 *294:16 *306:27 0
16 *294:16 *307:10 0
17 *294:22 *307:16 0.000340922
18 *294:38 *297:8 0.00375587
19 *294:42 *319:8 0
20 output_o[36] *1780:B 0
21 *1778:A *294:6 8.00842e-05
22 *1778:A *294:38 0.000175693
23 *1815:B *294:16 0.000273509
24 *1829:B *294:10 0.000445347
25 *2048:A *294:16 0
26 *51:8 *294:22 0.000234
27 *127:12 *294:10 0
28 *268:21 *294:10 0
29 *268:36 *294:10 0.00129887
30 *268:47 *294:10 0.000501149
31 *273:84 *294:16 0
32 *274:74 *294:22 0
33 *281:14 *294:38 0.0020113
34 *282:14 *294:6 8.00842e-05
35 *282:14 *294:38 0.00016032
36 *283:27 *294:10 0
37 *283:31 *294:16 0.000112263
38 *287:72 *1780:B 0
39 *287:85 *294:42 1.54008e-05
40 *290:36 *294:38 0
41 *293:8 *294:42 0
*RES
1 *1778:Y *294:6 20.5356 
2 *294:6 *294:10 40.1262 
3 *294:10 *294:16 25.2427 
4 *294:16 *294:22 41.5862 
5 *294:22 *2056:B 20 
6 *294:16 *2055:B 20 
7 *294:6 *294:38 38.5915 
8 *294:38 *294:42 21.8334 
9 *294:42 *1779:B 20 
10 *294:42 *1780:B 24.6968 
*END

*D_NET *295 0.0146083
*CONN
*I *1782:B I *D sg13g2_and2_1
*I *1783:B I *D sg13g2_nand2_1
*I *2058:B I *D sg13g2_nand2_1
*I *2057:B I *D sg13g2_and2_1
*I *1781:Y O *D sg13g2_nor2_1
*CAP
1 *1782:B 6.06315e-05
2 *1783:B 0.000189977
3 *2058:B 0
4 *2057:B 0.000240726
5 *1781:Y 0
6 *295:40 0.000250609
7 *295:38 0.00328539
8 *295:29 0.000116312
9 *295:8 0.000871212
10 *295:6 0.00379956
11 *2057:B *306:10 0.000181387
12 *295:8 *312:166 0
13 *295:29 *306:10 1.53556e-05
14 *295:29 *306:27 4.75525e-05
15 *295:29 *308:14 0.000181279
16 *295:29 *312:166 0.000181279
17 *295:38 *2063:B 0
18 *295:38 *299:14 0
19 *295:38 *300:22 0
20 *295:38 *302:18 0.004627
21 *295:38 *312:166 0
22 output_no[21] *2057:B 0
23 *1782:A *1782:B 9.69501e-05
24 *1782:A *1783:B 0.000240377
25 *1814:A *295:29 1.54008e-05
26 *1814:B *295:29 1.54008e-05
27 *127:10 *1782:B 0
28 *273:84 *2057:B 0.0001919
29 *274:64 *295:38 0
30 *274:66 *295:8 0
31 *274:66 *295:38 0
32 *274:68 *295:8 0
33 *274:74 *295:8 0
*RES
1 *1781:Y *295:6 40 
2 *295:6 *295:8 4.5526 
3 *295:8 *2057:B 42.8119 
4 *295:8 *295:29 41.5965 
5 *295:29 *2058:B 40 
6 *295:6 *295:38 33.475 
7 *295:38 *295:40 20 
8 *295:40 *1783:B 21.9673 
9 *295:40 *1782:B 20.7519 
*END

*D_NET *296 0.0188508
*CONN
*I *1786:B I *D sg13g2_nand2_1
*I *1785:B I *D sg13g2_and2_1
*I *2059:B I *D sg13g2_and2_1
*I *2060:B I *D sg13g2_nand2_1
*I *1784:Y O *D sg13g2_nor2_1
*CAP
1 *1786:B 0.000397401
2 *1785:B 3.03095e-05
3 *2059:B 0
4 *2060:B 9.52236e-05
5 *1784:Y 0.00029369
6 *296:32 0.000524407
7 *296:28 0.00288709
8 *296:14 0.000820453
9 *296:8 0.00380931
10 *1786:B *320:22 0
11 *1786:B *326:10 0
12 *296:8 *315:36 0
13 *296:14 *297:12 0
14 *296:28 *297:8 0
15 *296:28 *297:36 0.000234726
16 *296:32 *320:22 0
17 *296:32 *326:10 0
18 output_no[21] *296:14 0
19 output_o[22] *2060:B 0
20 output_o[38] *1786:B 0
21 *1781:A *296:8 0.000337195
22 *1785:A *1785:B 0
23 *1785:A *1786:B 0.000530713
24 *1814:A *296:14 0
25 *6:72 *296:8 6.41265e-05
26 *127:12 *296:28 0
27 *268:21 *296:14 0.000608042
28 *274:10 *296:28 0.000532395
29 *274:16 *296:28 0.000395396
30 *280:19 *296:28 0.00375592
31 *283:27 *296:14 0
32 *283:27 *296:28 0
33 *294:10 *296:14 0.000817911
34 *294:10 *296:28 0.00271649
*RES
1 *1784:Y *296:8 42.6986 
2 *296:8 *296:14 26.367 
3 *296:14 *2060:B 21.0918 
4 *296:14 *2059:B 20 
5 *296:8 *296:28 35.4526 
6 *296:28 *296:32 20.9682 
7 *296:32 *1785:B 20.3502 
8 *296:32 *1786:B 23.8996 
*END

*D_NET *297 0.0183207
*CONN
*I *1789:B I *D sg13g2_or2_1
*I *1788:B I *D sg13g2_nor2_1
*I *2062:B I *D sg13g2_or2_1
*I *2061:B I *D sg13g2_nor2_1
*I *1787:Y O *D sg13g2_nand3_1
*CAP
1 *1789:B 7.4276e-05
2 *1788:B 0.000445342
3 *2062:B 2.36489e-05
4 *2061:B 0.000114931
5 *1787:Y 0
6 *297:36 0.000918686
7 *297:12 0.000706527
8 *297:8 0.00283497
9 *297:6 0.0026661
10 *1788:B *326:10 0
11 *1789:B *326:10 0
12 *2061:B *315:8 0
13 *297:12 *315:8 0
14 output_no[23] *2061:B 0
15 *1789:A *1788:B 0.000530713
16 *1789:A *1789:B 0
17 *1833:A *297:12 0.000240377
18 *4:9 *297:8 0
19 *6:87 *297:8 0
20 *7:60 *297:8 0.000449015
21 *255:16 *1788:B 0
22 *280:19 *297:36 0
23 *281:14 *297:8 0
24 *281:14 *297:36 0
25 *283:27 *297:8 0.0053255
26 *290:36 *297:8 0
27 *294:38 *297:8 0.00375587
28 *296:14 *297:12 0
29 *296:28 *297:8 0
30 *296:28 *297:36 0.000234726
*RES
1 *1787:Y *297:6 40 
2 *297:6 *297:8 35.947 
3 *297:8 *297:12 25.0779 
4 *297:12 *2061:B 21.3802 
5 *297:12 *2062:B 20.3502 
6 *297:6 *297:36 24.1097 
7 *297:36 *1788:B 24.429 
8 *297:36 *1789:B 20.8446 
*END

*D_NET *298 0.0161978
*CONN
*I *1849:C I *D sg13g2_nand3_1
*I *1853:C I *D sg13g2_nand3_1
*I *1848:C I *D sg13g2_and3_1
*I *1852:C I *D sg13g2_and3_1
*I *1797:B I *D sg13g2_nand2_1
*I *1794:B I *D sg13g2_nand2_1
*I *1845:D I *D sg13g2_nand4_1
*I *1844:D I *D sg13g2_and4_1
*I *1791:C I *D sg13g2_nand3_1
*I *1856:C I *D sg13g2_and3_1
*I *1800:B I *D sg13g2_nand2_1
*I *1857:C I *D sg13g2_nand3_1
*I *1790:Y O *D sg13g2_nor2b_1
*CAP
1 *1849:C 0
2 *1853:C 0
3 *1848:C 5.01774e-05
4 *1852:C 4.37077e-05
5 *1797:B 0
6 *1794:B 0.000165626
7 *1845:D 0.000381791
8 *1844:D 0.000257837
9 *1791:C 0
10 *1856:C 0.000262811
11 *1800:B 3.77166e-05
12 *1857:C 3.28379e-05
13 *1790:Y 0.000197789
14 *298:144 7.79286e-05
15 *298:138 0.00029322
16 *298:127 0.000371993
17 *298:74 0.000782826
18 *298:65 0.000252426
19 *298:50 0.00076528
20 *298:37 0.000571998
21 *298:22 0.000502772
22 *298:20 0.000494518
23 *298:18 0.00142838
24 *298:12 0.00190352
25 *298:10 0.000735739
26 *1794:B *300:10 1.54008e-05
27 *1794:B *329:10 4.27372e-05
28 *1844:D *320:22 0.000130403
29 *1844:D *320:33 0.000345666
30 *1845:D *320:33 0.000812524
31 *298:10 *306:33 0
32 *298:65 *321:10 0
33 *298:74 *321:10 0
34 *1755:B *1857:C 0
35 *1791:B *298:65 1.53556e-05
36 *1791:B *298:74 0.000225545
37 *1794:A *298:18 0.000346048
38 *1796:A *1857:C 0
39 *1844:C *1844:D 0.000112541
40 *1845:C *1845:D 1.54008e-05
41 *1849:B *298:138 0.000272537
42 *1852:B *1852:C 8.00842e-05
43 *1853:B *298:144 7.49633e-05
44 *1856:A *1856:C 7.99004e-05
45 *1857:A *298:50 0
46 *1872:A *1852:C 8.00842e-05
47 *3:238 *298:144 0.00012767
48 *4:134 *1845:D 4.77425e-05
49 *5:133 *1845:D 0.000112541
50 *6:25 *1856:C 0.00039983
51 *6:25 *298:10 0
52 *6:25 *298:50 0.000184219
53 *266:10 *298:10 0
54 *269:24 *298:12 0
55 *269:24 *298:18 0
56 *269:24 *298:127 0
57 *269:26 *298:18 0
58 *269:36 *298:18 0
59 *270:12 *298:18 0
60 *272:27 *298:22 0
61 *272:27 *298:37 0.000554579
62 *275:21 *298:18 0.000269337
63 *275:32 *298:18 0.000702555
64 *275:47 *298:12 0
65 *275:47 *298:18 0.000678298
66 *275:47 *298:127 0
67 *276:10 *298:22 0
68 *276:10 *298:37 0
69 *277:8 *298:18 0
70 *277:19 *1794:B 0.00012816
71 *279:56 *298:50 0
72 *279:62 *298:37 0.000448012
73 *280:19 *298:18 0
74 *287:8 *298:144 0.000284804
*RES
1 *1790:Y *298:10 41.9364 
2 *298:10 *298:12 3.3166 
3 *298:12 *298:18 34.2964 
4 *298:18 *298:20 20 
5 *298:20 *298:22 2.575 
6 *298:22 *1857:C 40.3502 
7 *298:22 *298:37 22.8943 
8 *298:37 *1800:B 20.3193 
9 *298:37 *298:50 23.7595 
10 *298:50 *1856:C 42.8016 
11 *298:50 *298:65 20.6866 
12 *298:65 *1791:C 20 
13 *298:65 *298:74 21.6171 
14 *298:74 *1844:D 42.8325 
15 *298:74 *1845:D 44.5629 
16 *298:20 *1794:B 41.6969 
17 *298:18 *1797:B 20 
18 *298:12 *1852:C 40.5356 
19 *298:10 *298:127 20.8446 
20 *298:127 *1848:C 20.5356 
21 *298:127 *298:138 2.1836 
22 *298:138 *298:144 41.339 
23 *298:144 *1853:C 20 
24 *298:138 *1849:C 20 
*END

*D_NET *299 0.0171756
*CONN
*I *1793:B I *D sg13g2_or2_1
*I *1792:B I *D sg13g2_nor2_1
*I *2064:B I *D sg13g2_or2_1
*I *2063:B I *D sg13g2_nor2_1
*I *1791:Y O *D sg13g2_nand3_1
*CAP
1 *1793:B 4.00817e-05
2 *1792:B 4.37077e-05
3 *2064:B 4.0271e-05
4 *2063:B 0.000191614
5 *1791:Y 0.000704619
6 *299:36 0.0001077
7 *299:14 0.00326222
8 *299:8 0.00375886
9 *1793:B *300:22 0.000178708
10 *1793:B *346:52 0.000156922
11 *2063:B *315:8 0
12 *299:8 *302:8 0
13 *299:14 *300:22 0.00659125
14 *299:14 *326:12 0
15 *299:14 *346:52 0.000234224
16 *299:36 *300:22 0.00012785
17 *299:36 *346:52 0.000105753
18 output_no[39] *299:8 0.000466143
19 *1752:A *299:14 0
20 *1792:A *1792:B 0.000160168
21 *1792:A *299:8 7.98567e-05
22 *63:12 *299:14 0.000555736
23 *255:16 *299:8 0.000369932
24 *273:22 *299:14 0
25 *274:46 *299:14 0
26 *274:50 *299:14 0
27 *274:52 *299:14 0
28 *274:54 *299:14 0
29 *274:56 *299:14 0
30 *274:58 *299:14 0
31 *274:60 *299:14 0
32 *274:62 *2063:B 0
33 *274:62 *299:14 0
34 *274:64 *2063:B 0
35 *279:56 *299:8 0
36 *287:64 *299:14 0
37 *287:66 *299:14 0
38 *287:72 *299:14 0
39 *288:73 *299:14 0
40 *288:77 *299:14 0
41 *288:79 *299:14 0
42 *288:81 *299:14 0
43 *295:38 *2063:B 0
44 *295:38 *299:14 0
*RES
1 *1791:Y *299:8 47.0246 
2 *299:8 *299:14 37.8216 
3 *299:14 *2063:B 42.06 
4 *299:14 *2064:B 40.5356 
5 *299:8 *299:36 0.5974 
6 *299:36 *1792:B 40.5356 
7 *299:36 *1793:B 40.8446 
*END

*D_NET *300 0.0179811
*CONN
*I *1795:B I *D sg13g2_nor2_1
*I *1796:B I *D sg13g2_or2_1
*I *2066:B I *D sg13g2_or2_1
*I *2065:B I *D sg13g2_nor2_1
*I *1794:Y O *D sg13g2_nand2_1
*CAP
1 *1795:B 5.40513e-05
2 *1796:B 0.000123886
3 *2066:B 0
4 *2065:B 0.000116405
5 *1794:Y 0.000696503
6 *300:26 0.000201356
7 *300:22 0.00282883
8 *300:16 0.00295722
9 *300:10 0.000840006
10 *2065:B *2067:B 0
11 *300:10 *312:20 0
12 *300:10 *328:14 0
13 *300:10 *346:46 0.000234727
14 *300:10 *346:52 0.0005308
15 *300:16 *312:20 2.20193e-05
16 *300:16 *346:52 6.66935e-05
17 *300:22 *302:18 0.00179208
18 *300:22 *312:14 0
19 *300:22 *346:52 0
20 output_no[41] *1795:B 8.00842e-05
21 *1793:B *300:22 0.000178708
22 *1794:B *300:10 1.54008e-05
23 *1796:A *1796:B 0.000175693
24 *288:230 *300:10 7.48209e-05
25 *288:261 *300:10 0.000272718
26 *295:38 *300:22 0
27 *299:14 *300:22 0.00659125
28 *299:36 *300:22 0.00012785
*RES
1 *1794:Y *300:10 46.9113 
2 *300:10 *300:16 1.0197 
3 *300:16 *300:22 36.3384 
4 *300:22 *300:26 20.7519 
5 *300:26 *2065:B 21.3802 
6 *300:26 *2066:B 20 
7 *300:16 *1796:B 41.1845 
8 *300:10 *1795:B 40.5356 
*END

*D_NET *301 0.0171351
*CONN
*I *1799:B I *D sg13g2_or2_1
*I *1798:B I *D sg13g2_nor2_1
*I *2068:B I *D sg13g2_or2_1
*I *2067:B I *D sg13g2_nor2_1
*I *1797:Y O *D sg13g2_nand2_1
*CAP
1 *1799:B 0
2 *1798:B 0
3 *2068:B 0
4 *2067:B 0.000105507
5 *1797:Y 0.00046508
6 *301:28 0.000338091
7 *301:22 0.00265242
8 *301:18 0.00258767
9 *301:14 0.000277223
10 *301:10 0.000574467
11 *301:10 *2039:B 0
12 *301:22 *313:16 0.000128247
13 *301:22 *345:56 0
14 *301:22 *346:60 0
15 *301:28 *313:16 0
16 output_no[26] *301:28 0.000175648
17 output_no[41] *301:18 0
18 output_o[26] *301:28 0
19 *2065:B *2067:B 0
20 *70:10 *301:22 0.000181694
21 *195:10 *301:22 0.000395811
22 *201:10 *301:22 0.000395811
23 *203:10 *301:18 0.000175693
24 *203:10 *301:22 7.52149e-05
25 *270:12 *301:10 0
26 *270:12 *301:14 6.46834e-05
27 *270:12 *301:18 1.54008e-05
28 *270:18 *301:14 1.54008e-05
29 *270:18 *301:18 0.000208035
30 *270:26 *301:22 0.00273977
31 *278:20 *301:22 0.00556324
*RES
1 *1797:Y *301:10 24.2951 
2 *301:10 *301:14 1.3802 
3 *301:14 *301:18 21.8334 
4 *301:18 *301:22 34.7831 
5 *301:22 *301:28 22.3999 
6 *301:28 *2067:B 21.3802 
7 *301:28 *2068:B 20 
8 *301:14 *1798:B 20 
9 *301:10 *1799:B 20 
*END

*D_NET *302 0.0140457
*CONN
*I *1802:B I *D sg13g2_or2_1
*I *1801:B I *D sg13g2_nor2_1
*I *2070:B I *D sg13g2_or2_1
*I *2069:B I *D sg13g2_nor2_1
*I *1800:Y O *D sg13g2_nand2_1
*CAP
1 *1802:B 0
2 *1801:B 0.000256822
3 *2070:B 0
4 *2069:B 0.000116724
5 *1800:Y 0.000228542
6 *302:36 0.00110362
7 *302:18 0.00227583
8 *302:8 0.00323445
9 *1801:B *2040:A 0
10 *1801:B *2040:B 1.54008e-05
11 *2069:B *313:16 0
12 *302:8 *321:10 0
13 *302:18 *2031:A 0
14 *302:18 *308:29 0
15 *302:18 *312:14 0.000395177
16 *302:18 *313:16 0
17 *302:36 *2031:A 0
18 *302:36 *308:29 0
19 *302:36 *321:23 0
20 *1743:B *2069:B 0
21 *295:38 *302:18 0.004627
22 *299:8 *302:8 0
23 *300:22 *302:18 0.00179208
*RES
1 *1800:Y *302:8 42.0497 
2 *302:8 *302:18 49.8906 
3 *302:18 *2069:B 21.3802 
4 *302:18 *2070:B 20 
5 *302:8 *302:36 27.0246 
6 *302:36 *1801:B 22.1836 
7 *302:36 *1802:B 20 
*END

*D_NET *303 0.00234587
*CONN
*I *1980:B I *D sg13g2_nand2b_1
*I *1812:B I *D sg13g2_and2_1
*I *1813:B I *D sg13g2_nand2_1
*I *1811:Y O *D sg13g2_nor2_1
*CAP
1 *1980:B 0.000118005
2 *1812:B 5.02319e-05
3 *1813:B 0.00019608
4 *1811:Y 4.34386e-05
5 *303:10 0.000246311
6 *303:8 0.000161443
7 *1980:B *1879:A 0
8 *1980:B *330:44 0.000319109
9 *303:8 *330:44 0.000234726
10 *1811:B *1812:B 0
11 *1812:A *1812:B 3.22965e-05
12 *1813:A *1812:B 4.77425e-05
13 *1813:A *1813:B 0.000272528
14 *1980:A_N *1980:B 4.76973e-05
15 *10:56 *1980:B 5.30319e-05
16 *10:58 *1980:B 0.000212543
17 *10:64 *1980:B 7.51285e-05
18 *10:64 *303:8 0.000235556
*RES
1 *1811:Y *303:8 41.0918 
2 *303:8 *303:10 20 
3 *303:10 *1813:B 21.8334 
4 *303:10 *1812:B 20.5356 
5 *303:8 *1980:B 42.1218 
*END

*D_NET *304 0.0191546
*CONN
*I *1875:A I *D sg13g2_nand2_1
*I *1871:A I *D sg13g2_nand2_1
*I *1867:A I *D sg13g2_nand2_1
*I *1863:A I *D sg13g2_nand2_1
*I *1859:A I *D sg13g2_nand2_1
*I *1855:A I *D sg13g2_nand2_1
*I *1851:A I *D sg13g2_nand2_1
*I *1847:A I *D sg13g2_nand2_1
*I *1840:A I *D sg13g2_nand2_1
*I *1836:A I *D sg13g2_nand2_1
*I *1832:A I *D sg13g2_nand2_1
*I *1825:A I *D sg13g2_nand2_1
*I *1821:A I *D sg13g2_nand2_1
*I *1817:A I *D sg13g2_nand2_1
*I *1812:X O *D sg13g2_and2_1
*CAP
1 *1875:A 7.8643e-05
2 *1871:A 0
3 *1867:A 0
4 *1863:A 0
5 *1859:A 7.83788e-05
6 *1855:A 8.09296e-05
7 *1851:A 7.45326e-05
8 *1847:A 8.72498e-05
9 *1840:A 8.4839e-05
10 *1836:A 8.37334e-05
11 *1832:A 6.59554e-05
12 *1825:A 7.75954e-05
13 *1821:A 0
14 *1817:A 0
15 *1812:X 0.000232742
16 *304:65 0.000333621
17 *304:52 0.00121716
18 *304:42 0.00142694
19 *304:40 0.000731965
20 *304:38 0.000463458
21 *304:36 0.000669611
22 *304:34 0.000606283
23 *304:32 0.000357193
24 *304:30 0.000422946
25 *304:28 0.000468947
26 *304:20 0.000315055
27 *304:16 0.000195571
28 *304:14 0.000185153
29 *304:12 0.000398587
30 *1832:A *332:10 0.0001122
31 *1851:A *1851:B 0
32 *1859:A *305:24 0
33 *1875:A *305:8 0.00012816
34 *1875:A *332:48 0
35 *1875:A *335:43 0.000265575
36 *304:12 *1874:B 1.54008e-05
37 *304:14 *305:8 0.000159096
38 *304:14 *305:10 0.000128662
39 *304:14 *324:33 0
40 *304:14 *335:43 7.33256e-05
41 *304:16 *305:10 0.000318694
42 *304:16 *305:12 0.000128662
43 *304:16 *324:33 0
44 *304:16 *332:35 0.00032018
45 *304:20 *305:12 0.000318694
46 *304:20 *305:18 0.00012816
47 *304:20 *332:35 0.000342122
48 *304:28 *1863:B 0
49 *304:28 *305:18 0
50 *304:28 *305:24 0.000128576
51 *304:28 *332:35 0.000412036
52 *304:30 *305:24 0
53 *304:30 *305:26 0
54 *304:30 *332:35 0.000427969
55 *304:32 *1854:B 0.00015929
56 *304:32 *305:26 0
57 *304:32 *325:29 0.000181192
58 *304:32 *332:35 0.000526959
59 *304:34 *325:29 0.000397034
60 *304:34 *332:35 0.00048193
61 *304:36 *325:29 0
62 *304:36 *332:35 0.000960614
63 *304:38 *325:29 0
64 *304:38 *332:35 0.000427041
65 *304:40 *325:29 0
66 *304:40 *332:35 0.000481001
67 *304:42 *2044:A 0.000608233
68 *304:42 *324:18 0
69 *304:42 *325:29 0
70 *304:42 *332:35 7.51285e-05
71 *304:52 *322:12 7.98942e-05
72 *304:52 *323:22 2.58791e-05
73 *304:52 *324:18 0
74 *304:52 *325:12 0
75 *304:52 *325:29 0.000557233
76 *304:52 *345:34 0.000181071
77 *304:65 *1817:B 0
78 *304:65 *306:48 0.000342482
79 *304:65 *308:29 0.00023393
80 *304:65 *322:12 0.000337167
81 output_no[48] *304:52 4.77425e-05
82 output_no[50] *1825:A 7.98582e-05
83 output_no[52] *1832:A 7.98582e-05
84 output_no[53] *1836:A 7.98582e-05
85 output_no[54] *1840:A 7.98582e-05
86 output_no[56] *1847:A 7.98582e-05
87 output_no[57] *1851:A 7.98582e-05
88 output_no[58] *1855:A 7.98582e-05
89 output_no[59] *1859:A 7.98582e-05
90 output_no[60] *304:28 4.76973e-05
91 *1813:A *304:12 1.54008e-05
92 *85:8 *304:42 0.000128353
93 *150:8 *304:52 7.58806e-05
*RES
1 *1812:X *304:12 42.0703 
2 *304:12 *304:14 1.339 
3 *304:14 *304:16 2.0806 
4 *304:16 *304:20 22.0806 
5 *304:20 *304:28 22.9355 
6 *304:28 *304:30 2.0806 
7 *304:30 *304:32 2.575 
8 *304:32 *304:34 2.3278 
9 *304:34 *304:36 4.5526 
10 *304:36 *304:38 2.0806 
11 *304:38 *304:40 2.3278 
12 *304:40 *304:42 4.7998 
13 *304:42 *304:52 28.9713 
14 *304:52 *1817:A 20 
15 *304:52 *304:65 43.8522 
16 *304:65 *1821:A 20 
17 *304:42 *1825:A 40.7519 
18 *304:40 *1832:A 40.7519 
19 *304:38 *1836:A 40.7519 
20 *304:36 *1840:A 40.7519 
21 *304:34 *1847:A 40.7519 
22 *304:32 *1851:A 40.7519 
23 *304:30 *1855:A 40.7519 
24 *304:28 *1859:A 40.7519 
25 *304:20 *1863:A 20 
26 *304:16 *1867:A 40 
27 *304:14 *1871:A 40 
28 *304:12 *1875:A 41.339 
*END

*D_NET *305 0.0165429
*CONN
*I *1874:A I *D sg13g2_nor2_1
*I *1870:A I *D sg13g2_nor2_1
*I *1866:A I *D sg13g2_nor2_1
*I *1862:A I *D sg13g2_nor2_1
*I *1858:A I *D sg13g2_nor2_1
*I *1854:A I *D sg13g2_nor2_1
*I *1850:A I *D sg13g2_nor2_1
*I *1846:A I *D sg13g2_nor2_1
*I *1843:A I *D sg13g2_or2_1
*I *1842:A I *D sg13g2_nor2_1
*I *1839:A I *D sg13g2_nor2_1
*I *1835:A I *D sg13g2_nor2_1
*I *1831:A I *D sg13g2_nor2_1
*I *1827:A I *D sg13g2_nor2_1
*I *1828:A I *D sg13g2_or2_1
*I *1824:A I *D sg13g2_nor2_1
*I *1820:A I *D sg13g2_nor2_1
*I *1816:A I *D sg13g2_nor2_1
*I *1813:Y O *D sg13g2_nand2_1
*CAP
1 *1874:A 4.03127e-05
2 *1870:A 3.7009e-05
3 *1866:A 3.82423e-05
4 *1862:A 0
5 *1858:A 3.86142e-05
6 *1854:A 4.04083e-05
7 *1850:A 0
8 *1846:A 0
9 *1843:A 0
10 *1842:A 0
11 *1839:A 0
12 *1835:A 0
13 *1831:A 0
14 *1827:A 0.00024037
15 *1828:A 3.5987e-05
16 *1824:A 0
17 *1820:A 0.000249143
18 *1816:A 0.000264032
19 *1813:Y 0.000116948
20 *305:85 0.000276357
21 *305:52 0.000896665
22 *305:46 0.000708191
23 *305:44 0.000381915
24 *305:42 0.000224518
25 *305:40 0.000330871
26 *305:38 0.000317276
27 *305:36 0.000258584
28 *305:34 0.000213505
29 *305:32 0.000334292
30 *305:30 0.000410082
31 *305:26 0.000439642
32 *305:24 0.000463101
33 *305:18 0.000442213
34 *305:12 0.000425002
35 *305:10 0.000360145
36 *305:8 0.000326174
37 *1816:A *325:12 0.000389882
38 *1816:A *325:29 2.16263e-05
39 *1816:A *345:34 0
40 *1816:A *346:34 5.28477e-05
41 *1816:A *346:40 0.000604515
42 *1820:A *309:12 0
43 *1820:A *323:10 0
44 *1820:A *325:12 0
45 *1820:A *346:34 3.12974e-05
46 *1827:A *1828:B 0.00012164
47 *1827:A *1831:B 0.000208035
48 *1854:A *1851:B 0
49 *1854:A *1854:B 0
50 *305:8 *332:48 0
51 *305:10 *332:48 0
52 *305:12 *312:46 0
53 *305:18 *1858:B 0
54 *305:18 *312:46 0
55 *305:24 *326:109 0.00023547
56 *305:26 *1854:B 0.000106064
57 *305:26 *319:64 0
58 *305:26 *326:109 0.000230926
59 *305:30 *1854:B 7.51285e-05
60 *305:30 *319:64 0
61 *305:30 *325:29 0.000393822
62 *305:32 *319:64 0
63 *305:32 *325:29 0.000318607
64 *305:34 *319:64 0
65 *305:34 *325:29 0.00026766
66 *305:36 *325:29 0.000268884
67 *305:38 *325:29 0.000425029
68 *305:38 *345:14 0
69 *305:40 *325:29 0.00042325
70 *305:40 *345:14 0
71 *305:42 *325:29 0.000479363
72 *305:42 *345:14 0
73 *305:44 *325:29 0.000160341
74 *305:44 *345:14 0
75 *305:46 *325:29 0.000851418
76 *305:46 *345:14 0
77 *305:46 *346:18 0
78 *305:52 *325:29 0.000499225
79 *305:52 *346:18 0
80 *305:52 *346:20 0.000209452
81 *305:52 *346:22 0.000264718
82 *305:52 *346:24 0.000211438
83 *305:52 *346:34 7.46126e-05
84 output_no[49] *1820:A 0
85 output_no[51] *1828:A 0
86 output_o[51] *1827:A 0
87 output_o[51] *1828:A 1.8481e-05
88 *1859:A *305:24 0
89 *1875:A *305:8 0.00012816
90 *189:8 *305:52 7.52149e-05
91 *210:10 *1820:A 0.000175648
92 *304:14 *305:8 0.000159096
93 *304:14 *305:10 0.000128662
94 *304:16 *305:10 0.000318694
95 *304:16 *305:12 0.000128662
96 *304:20 *305:12 0.000318694
97 *304:20 *305:18 0.00012816
98 *304:28 *305:18 0
99 *304:28 *305:24 0.000128576
100 *304:30 *305:24 0
101 *304:30 *305:26 0
102 *304:32 *305:26 0
*RES
1 *1813:Y *305:8 41.339 
2 *305:8 *305:10 2.0806 
3 *305:10 *305:12 2.0806 
4 *305:12 *305:18 22.3999 
5 *305:18 *305:24 22.3999 
6 *305:24 *305:26 2.0806 
7 *305:26 *305:30 2.3999 
8 *305:30 *305:32 2.3278 
9 *305:32 *305:34 1.339 
10 *305:34 *305:36 1.339 
11 *305:36 *305:38 2.0806 
12 *305:38 *305:40 2.0806 
13 *305:40 *305:42 2.3278 
14 *305:42 *305:44 0.8446 
15 *305:44 *305:46 4.0582 
16 *305:46 *305:52 5.2221 
17 *305:52 *1816:A 43.6359 
18 *305:52 *1820:A 42.5029 
19 *305:46 *1824:A 40 
20 *305:44 *305:85 20 
21 *305:85 *1828:A 20.4738 
22 *305:85 *1827:A 22.6162 
23 *305:42 *1831:A 40 
24 *305:40 *1835:A 40 
25 *305:38 *1839:A 40 
26 *305:36 *1842:A 40 
27 *305:34 *1843:A 40 
28 *305:32 *1846:A 40 
29 *305:30 *1850:A 40 
30 *305:26 *1854:A 40.3193 
31 *305:24 *1858:A 40.3193 
32 *305:18 *1862:A 20 
33 *305:12 *1866:A 40.3193 
34 *305:10 *1870:A 40.3193 
35 *305:8 *1874:A 40.3193 
*END

*D_NET *306 0.108161
*CONN
*I *1982:A I *D sg13g2_nand2_1
*I *1948:A I *D sg13g2_nand2_1
*I *1914:A I *D sg13g2_nand2_1
*I *1880:A I *D sg13g2_nand2_1
*I *1817:B I *D sg13g2_nand2_1
*I *2016:A I *D sg13g2_nand2_1
*I *1814:Y O *D sg13g2_nor2_1
*CAP
1 *1982:A 0.000494187
2 *1948:A 0.000542112
3 *1914:A 0.00043225
4 *1880:A 0
5 *1817:B 0.000250924
6 *2016:A 0.000154373
7 *1814:Y 0
8 *306:125 0.0020489
9 *306:114 0.00248604
10 *306:106 0.00231106
11 *306:104 0.00240869
12 *306:89 0.00091909
13 *306:87 0.000435711
14 *306:79 0.00211564
15 *306:77 0.00167993
16 *306:70 0.000369721
17 *306:60 0.00201993
18 *306:54 0.00169874
19 *306:48 0.00125142
20 *306:33 0.00250863
21 *306:29 0.00425372
22 *306:27 0.00420905
23 *306:10 0.00214179
24 *306:4 0.00299757
25 *1948:A *1949:A 0
26 *306:10 *307:16 0
27 *306:10 *308:22 0
28 *306:10 *312:166 0
29 *306:10 *315:18 0
30 *306:29 *313:47 0.0107337
31 *306:29 *315:38 0.0130652
32 *306:48 *2042:A 0.000393695
33 *306:48 *309:27 0.00033926
34 *306:48 *319:34 0
35 *306:48 *321:23 0
36 *306:48 *330:31 0.000898254
37 *306:48 *333:18 0.00012816
38 *306:48 *346:8 0
39 *306:48 *346:18 0
40 *306:60 *307:52 0
41 *306:60 *308:39 0.00590745
42 *306:70 *1879:A 0
43 *306:70 *310:78 0
44 *306:70 *332:48 0.000233591
45 *306:79 *308:39 0.000405184
46 *306:79 *308:52 0.00775072
47 *306:79 *317:93 0
48 *306:79 *329:46 0.00655391
49 *306:79 *330:48 0
50 *306:106 *323:60 0.00409463
51 *306:106 *323:71 0.0033932
52 *306:114 *318:59 0.000342449
53 *306:114 *320:88 0.000341949
54 *306:125 *308:90 0
55 *306:125 *318:59 0.00293916
56 *306:125 *320:88 0.00381474
57 output_no[21] *306:10 4.74714e-05
58 output_no[21] *306:27 2.21754e-05
59 output_no[47] *1817:B 0
60 output_no[47] *306:33 0
61 output_o[112] *1982:A 0.000369743
62 *1814:A *306:27 0
63 *1814:B *306:27 8.00842e-05
64 *2057:B *306:10 0.000181387
65 *3:26 *306:27 0.000112684
66 *3:37 *306:27 0.000226215
67 *4:9 *306:27 0
68 *6:19 *306:33 0
69 *6:25 *306:33 0
70 *8:13 *306:87 0.000663092
71 *9:11 *306:87 0
72 *50:16 *306:10 0
73 *153:8 *1948:A 0
74 *155:18 *306:125 0.00360097
75 *162:10 *306:125 0.00338676
76 *266:14 *306:29 0
77 *271:18 *306:60 0
78 *273:84 *306:27 0
79 *274:74 *306:10 0
80 *283:31 *306:27 0
81 *294:16 *306:27 0
82 *295:29 *306:10 1.53556e-05
83 *295:29 *306:27 4.75525e-05
84 *298:10 *306:33 0
85 *304:65 *1817:B 0
86 *304:65 *306:48 0.000342482
*RES
1 *1814:Y *306:4 20 
2 *306:4 *306:10 39.9511 
3 *306:10 *2016:A 41.4008 
4 *306:4 *306:27 30.2897 
5 *306:27 *306:29 64.375 
6 *306:29 *306:33 29.4039 
7 *306:33 *1817:B 22.0497 
8 *306:33 *306:48 33.3797 
9 *306:48 *306:54 40.3193 
10 *306:54 *306:60 47.8306 
11 *306:60 *306:70 43.2445 
12 *306:70 *1880:A 20 
13 *306:60 *306:77 20 
14 *306:77 *306:79 37.6774 
15 *306:79 *306:87 44.2539 
16 *306:87 *306:89 20 
17 *306:89 *1914:A 23.7348 
18 *306:89 *306:104 24.429 
19 *306:104 *306:106 33.9694 
20 *306:106 *306:114 44.5011 
21 *306:114 *1948:A 44.6453 
22 *306:114 *306:125 34.4638 
23 *306:125 *1982:A 44.6453 
*END

*D_NET *307 0.0693659
*CONN
*I *1981:A I *D sg13g2_nor2_1
*I *1947:A I *D sg13g2_nor2_1
*I *1913:A I *D sg13g2_nor2_1
*I *1879:A I *D sg13g2_nor2_1
*I *1816:B I *D sg13g2_nor2_1
*I *2015:A I *D sg13g2_nor2_1
*I *1815:Y O *D sg13g2_nand2_1
*CAP
1 *1981:A 0
2 *1947:A 5.58883e-05
3 *1913:A 0.000539045
4 *1879:A 0.000440778
5 *1816:B 0
6 *2015:A 0
7 *1815:Y 0.000170592
8 *307:125 0.000107424
9 *307:110 0.000645041
10 *307:106 0.00198186
11 *307:89 0.0007161
12 *307:81 0.00462306
13 *307:75 0.00323912
14 *307:58 0.000498648
15 *307:52 0.00325296
16 *307:50 0.00336805
17 *307:41 0.000318901
18 *307:31 0.000785099
19 *307:29 0.00564357
20 *307:27 0.00575429
21 *307:16 0.00098424
22 *307:10 0.00126555
23 *1879:A *1881:A 0
24 *1913:A *339:10 0.00020799
25 *1947:A *1947:B 8.00842e-05
26 *1947:A *341:14 0
27 *307:16 *308:22 0
28 *307:16 *326:12 0
29 *307:29 *310:16 0
30 *307:29 *314:18 0
31 *307:29 *317:18 0.00157349
32 *307:29 *327:18 0
33 *307:41 *318:22 0
34 *307:41 *324:18 0.000234727
35 *307:41 *326:27 0.000554418
36 *307:81 *314:75 0.000822239
37 *307:81 *320:62 0.00137047
38 *307:81 *320:73 0.00450811
39 *307:89 *309:57 0.000180985
40 *307:106 *308:71 0.00685926
41 *307:106 *320:73 0.00411228
42 *307:106 *320:88 0.00349366
43 *307:110 *1947:B 4.77425e-05
44 *307:110 *341:14 0
45 *307:110 *342:18 0.000289774
46 *307:125 *1981:B 8.00842e-05
47 *307:125 *331:100 0.00023464
48 *307:125 *342:35 0.000181608
49 output_no[47] *307:41 0.00014391
50 output_no[79] *1913:A 0
51 *1911:A *1913:A 4.77425e-05
52 *1912:B *1913:A 0
53 *1980:B *1879:A 0
54 *9:11 *307:89 0.000182093
55 *22:20 *307:50 7.78179e-05
56 *45:12 *307:50 0
57 *46:10 *307:10 0
58 *138:14 *307:29 0
59 *173:12 *307:41 1.4965e-05
60 *173:12 *307:50 0.000689708
61 *271:18 *307:52 0.00566536
62 *271:50 *1913:A 0.000240377
63 *274:74 *307:16 0
64 *274:78 *307:16 0
65 *274:80 *307:16 0
66 *274:84 *307:16 0
67 *284:26 *307:16 0.000234459
68 *286:39 *307:81 0.00221824
69 *286:39 *307:106 0
70 *293:34 *307:16 0.000288587
71 *294:16 *307:10 0
72 *294:22 *307:16 0.000340922
73 *306:10 *307:16 0
74 *306:60 *307:52 0
75 *306:70 *1879:A 0
*RES
1 *1815:Y *307:10 41.5038 
2 *307:10 *307:16 30.8047 
3 *307:16 *2015:A 20 
4 *307:10 *307:27 40.7519 
5 *307:27 *307:29 63.3862 
6 *307:29 *307:31 20 
7 *307:31 *307:41 44.0788 
8 *307:41 *1816:B 20 
9 *307:31 *307:50 24.6453 
10 *307:50 *307:52 43.6102 
11 *307:52 *307:58 40.5356 
12 *307:58 *1879:A 43.7801 
13 *307:52 *307:75 42.8016 
14 *307:75 *307:81 37.6053 
15 *307:81 *307:89 42.0291 
16 *307:89 *1913:A 45.5105 
17 *307:81 *307:106 35.2054 
18 *307:106 *307:110 23.8746 
19 *307:110 *1947:A 20.5356 
20 *307:110 *307:125 41.6274 
21 *307:125 *1981:A 20 
*END

*D_NET *308 0.096499
*CONN
*I *1821:B I *D sg13g2_nand2_1
*I *1984:A I *D sg13g2_nand2_1
*I *1950:A I *D sg13g2_nand2_1
*I *1916:A I *D sg13g2_nand2_1
*I *1882:A I *D sg13g2_nand2_1
*I *2018:A I *D sg13g2_nand2_1
*I *1818:Y O *D sg13g2_nor3_1
*CAP
1 *1821:B 3.76092e-05
2 *1984:A 0.000459789
3 *1950:A 0.000465498
4 *1916:A 0.000257934
5 *1882:A 0
6 *2018:A 0
7 *1818:Y 0.000151301
8 *308:90 0.00310351
9 *308:79 0.00329626
10 *308:71 0.0016801
11 *308:69 0.00182164
12 *308:58 0.000586515
13 *308:56 0
14 *308:52 0.00311627
15 *308:43 0
16 *308:39 0.00476978
17 *308:37 0.00221598
18 *308:29 0.00553368
19 *308:22 0.000190312
20 *308:14 0.0022018
21 *308:8 0.00709638
22 *1916:A *1915:A 0
23 *1950:A *344:40 0.000240377
24 *308:14 *312:166 0
25 *308:22 *315:14 0
26 *308:29 *312:166 0
27 *308:29 *319:10 0
28 *308:29 *319:34 0.0013963
29 *308:29 *321:23 0
30 *308:39 *310:70 0.00665404
31 *308:39 *329:46 0
32 *308:52 *310:99 0
33 *308:52 *312:65 0
34 *308:52 *317:93 0
35 *308:52 *334:67 0.00136798
36 *308:69 *1915:A 0
37 *308:71 *314:119 0
38 *308:71 *320:88 0.000662215
39 *308:79 *318:59 0.000181464
40 *308:79 *321:75 0
41 *308:90 *318:59 0.00253335
42 *308:90 *321:75 0
43 output_o[113] *1984:A 0.000240377
44 output_o[114] *1984:A 0
45 *1765:A *308:29 0.00112098
46 *9:9 *308:90 0
47 *9:11 *308:90 0
48 *157:10 *308:90 0
49 *162:10 *308:90 0.0040273
50 *164:14 *308:90 0
51 *165:10 *308:90 0.00194453
52 *170:12 *308:29 0.00348075
53 *172:12 *308:37 0
54 *172:12 *308:39 0
55 *208:14 *308:29 0
56 *271:18 *308:37 0
57 *271:18 *308:39 0
58 *274:26 *308:29 0.00012816
59 *284:12 *308:14 0.00228942
60 *284:12 *308:29 0.0025808
61 *284:18 *308:14 0.00242331
62 *284:18 *308:22 0
63 *284:26 *308:22 0.000127744
64 *286:39 *308:71 0.00659605
65 *288:261 *308:29 0.000181695
66 *290:14 *308:14 0
67 *295:29 *308:14 0.000181279
68 *302:18 *308:29 0
69 *302:36 *308:29 0
70 *304:65 *308:29 0.00023393
71 *306:10 *308:22 0
72 *306:60 *308:39 0.00590745
73 *306:79 *308:39 0.000405184
74 *306:79 *308:52 0.00775072
75 *306:125 *308:90 0
76 *307:16 *308:22 0
77 *307:106 *308:71 0.00685926
*RES
1 *1818:Y *308:8 41.4008 
2 *308:8 *308:14 43.602 
3 *308:14 *308:22 41.8437 
4 *308:22 *2018:A 20 
5 *308:8 *308:29 54.9814 
6 *308:29 *308:37 45.3663 
7 *308:37 *308:39 35.4526 
8 *308:39 *308:43 40 
9 *308:43 *1882:A 40 
10 *308:39 *308:52 40.6438 
11 *308:52 *308:56 40 
12 *308:56 *308:58 20 
13 *308:58 *1916:A 22.266 
14 *308:58 *308:69 22.9149 
15 *308:69 *308:71 34.9582 
16 *308:71 *308:79 41.8128 
17 *308:79 *1950:A 44.1159 
18 *308:79 *308:90 35.4526 
19 *308:90 *1984:A 44.2127 
20 *308:29 *1821:B 40.3193 
*END

*D_NET *309 0.0487405
*CONN
*I *1983:A I *D sg13g2_nor2_1
*I *1949:A I *D sg13g2_nor2_1
*I *1915:A I *D sg13g2_nor2_1
*I *1881:A I *D sg13g2_nor2_1
*I *2017:A I *D sg13g2_nor2_1
*I *1820:B I *D sg13g2_nor2_1
*I *1819:Y O *D sg13g2_nand4_1
*CAP
1 *1983:A 0
2 *1949:A 0.000259693
3 *1915:A 0.000461607
4 *1881:A 0.000440008
5 *2017:A 0
6 *1820:B 2.92584e-05
7 *1819:Y 0
8 *309:72 0.00046292
9 *309:68 0.0039041
10 *309:57 0.00706547
11 *309:55 0.00290299
12 *309:46 0.00275018
13 *309:40 0.00299509
14 *309:27 0.000373953
15 *309:12 0.00122155
16 *309:6 0.00150325
17 *1881:A *1882:B 0.000272718
18 *1949:A *344:40 0
19 *309:12 *323:10 0.000208035
20 *309:12 *330:8 0.000181279
21 *309:27 *2041:A 0
22 *309:40 *311:40 0
23 *309:40 *314:63 0.000441971
24 *309:46 *311:40 0
25 *309:46 *320:58 0.00147546
26 *309:46 *331:27 0
27 *309:57 *311:57 0.00439664
28 *309:57 *318:48 0
29 *309:57 *327:45 0.00552061
30 *309:68 *318:48 0
31 *309:68 *318:59 0
32 *309:68 *321:75 0.00434632
33 *1820:A *309:12 0
34 *1849:B *309:12 0.000240377
35 *1869:B *309:40 0.00012816
36 *1879:A *1881:A 0
37 *1916:A *1915:A 0
38 *1948:A *1949:A 0
39 *3:226 *309:12 0.000240377
40 *3:285 *309:12 0
41 *3:285 *309:40 0
42 *9:11 *309:57 0
43 *9:11 *309:68 0
44 *9:13 *309:57 0
45 *178:6 *309:27 0.00030487
46 *269:12 *309:12 0.000341216
47 *269:12 *309:40 0.000427282
48 *269:24 *309:12 0.000870829
49 *269:122 *309:40 0.000181192
50 *271:46 *309:46 0.00371099
51 *275:65 *309:12 0
52 *275:76 *309:12 0
53 *286:37 *309:46 0
54 *286:39 *309:46 0.000561879
55 *288:18 *309:12 0
56 *288:18 *309:40 0
57 *288:18 *309:46 0
58 *306:48 *309:27 0.00033926
59 *307:89 *309:57 0.000180985
60 *308:69 *1915:A 0
*RES
1 *1819:Y *309:6 40 
2 *309:6 *309:12 29.3833 
3 *309:12 *1820:B 20.3502 
4 *309:12 *309:27 43.8522 
5 *309:27 *2017:A 20 
6 *309:6 *309:40 47.3748 
7 *309:40 *309:46 47.9233 
8 *309:46 *1881:A 23.9964 
9 *309:46 *309:55 20 
10 *309:55 *309:57 38.9134 
11 *309:57 *1915:A 43.9964 
12 *309:57 *309:68 35.6998 
13 *309:68 *309:72 21.8334 
14 *309:72 *1949:A 22.266 
15 *309:72 *1983:A 20 
*END

*D_NET *310 0.0994376
*CONN
*I *1952:A I *D sg13g2_nand2_1
*I *1986:A I *D sg13g2_nand2_1
*I *1918:A I *D sg13g2_nand2_1
*I *1884:A I *D sg13g2_nand2_1
*I *1825:B I *D sg13g2_nand2_1
*I *2020:A I *D sg13g2_nand2_1
*I *1822:Y O *D sg13g2_nor3_1
*CAP
1 *1952:A 0
2 *1986:A 0
3 *1918:A 0.000446687
4 *1884:A 0
5 *1825:B 0
6 *2020:A 0
7 *1822:Y 0
8 *310:158 0
9 *310:154 0.00307257
10 *310:134 0.00335341
11 *310:126 0.000890596
12 *310:122 0.00203833
13 *310:120 0.00168708
14 *310:109 0.000705191
15 *310:105 0.0023245
16 *310:99 0.00399428
17 *310:86 3.34444e-05
18 *310:80 0.00170323
19 *310:78 0.000454363
20 *310:70 0.00217848
21 *310:68 0.00172412
22 *310:61 0.000234781
23 *310:53 0.000428005
24 *310:49 0.000935334
25 *310:41 0.00333282
26 *310:39 0.00268405
27 *310:33 0.00137937
28 *310:20 0
29 *310:16 0.0014275
30 *310:12 0.00222578
31 *310:4 0.00208431
32 *1918:A *311:90 1.54008e-05
33 *310:16 *314:18 0.00586057
34 *310:16 *317:18 0.00404786
35 *310:33 *313:45 0
36 *310:33 *314:40 0.00218213
37 *310:33 *315:38 0.00366069
38 *310:41 *314:40 0
39 *310:41 *320:33 0
40 *310:49 *314:44 0
41 *310:49 *334:29 0.000126859
42 *310:61 *311:18 0
43 *310:61 *346:18 0
44 *310:70 *313:57 0
45 *310:70 *313:63 0
46 *310:70 *326:31 0
47 *310:70 *329:46 0.00162431
48 *310:78 *313:63 0.00121272
49 *310:78 *333:37 0.00121292
50 *310:86 *1883:A 4.77425e-05
51 *310:99 *312:65 0
52 *310:99 *314:79 0.000663777
53 *310:99 *314:98 0.00353309
54 *310:105 *312:65 0
55 *310:105 *314:98 0
56 *310:105 *334:67 0
57 *310:122 *314:119 0.00689039
58 *310:122 *319:116 0.00251169
59 *310:122 *319:138 0.00524619
60 *310:126 *312:126 0
61 *310:154 *313:106 0.00026975
62 *310:154 *317:133 0
63 *310:154 *329:62 0
64 output_no[98] *310:134 1.54008e-05
65 *1737:B *310:49 0
66 *1819:B *310:49 0
67 *1819:C *310:49 0
68 *1819:A *310:49 0.000209614
69 *1822:A *310:33 4.77425e-05
70 *1822:B *310:12 7.93692e-05
71 *1822:B *310:33 6.46834e-05
72 *1829:A *310:12 0
73 *1845:C *310:41 0.000671646
74 *1860:C *310:41 0.000237686
75 *4:80 *310:41 0.00153562
76 *4:95 *310:41 0.000387549
77 *5:98 *310:41 0.000346091
78 *5:107 *310:41 0.000508203
79 *5:118 *310:41 0.000779277
80 *5:133 *310:41 0.00018387
81 *7:91 *310:33 0
82 *44:12 *310:53 0
83 *44:12 *310:61 0
84 *155:12 *310:126 0.000691221
85 *163:20 *310:154 0
86 *172:12 *310:70 0
87 *189:12 *310:53 0
88 *189:12 *310:61 0
89 *266:14 *310:41 0.00845488
90 *269:8 *310:49 0
91 *272:12 *310:49 0.000126358
92 *286:39 *310:122 0
93 *306:70 *310:78 0
94 *307:29 *310:16 0
95 *308:39 *310:70 0.00665404
96 *308:52 *310:99 0
*RES
1 *1822:Y *310:4 20 
2 *310:4 *310:12 47.5602 
3 *310:12 *310:16 47.0478 
4 *310:16 *310:20 40 
5 *310:20 *2020:A 40 
6 *310:4 *310:33 40.2292 
7 *310:33 *310:39 40.7519 
8 *310:39 *310:41 44.1046 
9 *310:41 *310:49 47.1894 
10 *310:49 *310:53 21.8334 
11 *310:53 *310:61 42.1527 
12 *310:61 *1825:B 20 
13 *310:53 *310:68 20 
14 *310:68 *310:70 30.7558 
15 *310:70 *310:78 47.3748 
16 *310:78 *310:80 20 
17 *310:80 *310:86 40.3193 
18 *310:86 *1884:A 20 
19 *310:80 *310:99 43.8239 
20 *310:99 *310:105 40.6309 
21 *310:105 *310:109 40 
22 *310:109 *1918:A 23.7801 
23 *310:109 *310:120 22.266 
24 *310:120 *310:122 35.4526 
25 *310:122 *310:126 25.9431 
26 *310:126 *310:134 42.369 
27 *310:134 *310:154 38.6297 
28 *310:154 *310:158 40 
29 *310:158 *1986:A 40 
30 *310:126 *1952:A 20 
*END

*D_NET *311 0.0521294
*CONN
*I *1985:A I *D sg13g2_nor2_1
*I *1951:A I *D sg13g2_nor2_1
*I *1917:A I *D sg13g2_nor2_1
*I *1883:A I *D sg13g2_nor2_1
*I *1824:B I *D sg13g2_nor2_1
*I *2019:A I *D sg13g2_nor2_1
*I *1823:Y O *D sg13g2_nand4_1
*CAP
1 *1985:A 0.000180784
2 *1951:A 3.18716e-05
3 *1917:A 0
4 *1883:A 0.000481392
5 *1824:B 4.29832e-05
6 *2019:A 0.000137748
7 *1823:Y 0
8 *311:100 0.000529413
9 *311:92 0.00274103
10 *311:90 0.00294495
11 *311:73 0.0017433
12 *311:63 0.00146194
13 *311:57 0.00102724
14 *311:44 0.00153415
15 *311:40 0.00222712
16 *311:38 0.00207858
17 *311:18 0.000356238
18 *311:16 0.000836233
19 *311:4 0.000777018
20 *1985:A *330:89 0.000126015
21 *1985:A *331:100 0.000321019
22 *1985:A *341:45 0.000128779
23 *311:16 *1827:B 0
24 *311:16 *330:14 0.00030506
25 *311:18 *2042:B 0
26 *311:18 *346:18 0
27 *311:40 *314:63 0.00363973
28 *311:40 *328:48 0
29 *311:63 *337:10 0
30 *311:73 *324:48 0.00125254
31 *311:73 *334:48 0.00242151
32 *311:90 *335:63 0.000561259
33 *311:92 *335:63 0.00334821
34 *311:92 *335:82 0.00127526
35 *311:100 *330:89 0.000182216
36 *311:100 *341:31 0.000175693
37 output_no[82] *311:90 0
38 output_no[97] *311:100 0
39 output_o[98] *311:100 0
40 *1823:B *311:16 4.77425e-05
41 *1823:B *311:38 0.000192634
42 *1823:A *311:16 4.77425e-05
43 *1823:A *311:38 0.000208035
44 *1865:B *311:16 0
45 *1918:A *311:90 1.54008e-05
46 *3:332 *311:16 0.000126354
47 *9:11 *311:57 0.00108983
48 *9:13 *311:57 0.00332808
49 *10:42 *311:73 0.000774582
50 *10:44 *311:73 0.000213443
51 *10:48 *311:73 0.00279584
52 *271:46 *311:40 0.00423752
53 *272:12 *311:16 0
54 *277:68 *311:16 0.000660087
55 *286:10 *311:16 0.00107837
56 *288:18 *311:40 0
57 *309:40 *311:40 0
58 *309:46 *311:40 0
59 *309:57 *311:57 0.00439664
60 *310:61 *311:18 0
61 *310:86 *1883:A 4.77425e-05
*RES
1 *1823:Y *311:4 20 
2 *311:4 *311:16 48.8524 
3 *311:16 *311:18 1.5291 
4 *311:18 *2019:A 21.6274 
5 *311:18 *1824:B 20.5356 
6 *311:4 *311:38 21.4008 
7 *311:38 *311:40 31.003 
8 *311:40 *311:44 22.266 
9 *311:44 *1883:A 24.1303 
10 *311:44 *311:57 40.3734 
11 *311:57 *311:63 42.0497 
12 *311:63 *311:73 41.6712 
13 *311:73 *1917:A 20 
14 *311:73 *311:90 25.8916 
15 *311:90 *311:92 31.2193 
16 *311:92 *311:100 43.1106 
17 *311:100 *1951:A 40.2225 
18 *311:100 *1985:A 42.5029 
*END

*D_NET *312 0.0875585
*CONN
*I *2021:A I *D sg13g2_nor2_1
*I *2022:A_N I *D sg13g2_nand2b_1
*I *1885:A I *D sg13g2_nor2_1
*I *1954:A_N I *D sg13g2_nand2b_1
*I *1987:A I *D sg13g2_nor2_1
*I *1988:A_N I *D sg13g2_nand2b_1
*I *1953:A I *D sg13g2_nor2_1
*I *1919:A I *D sg13g2_nor2_1
*I *1920:A_N I *D sg13g2_nand2b_1
*I *1886:A_N I *D sg13g2_nand2b_1
*I *1828:B I *D sg13g2_or2_1
*I *1827:B I *D sg13g2_nor2_1
*I *1826:Y O *D sg13g2_nand4_1
*CAP
1 *2021:A 0
2 *2022:A_N 3.85278e-05
3 *1885:A 7.70289e-05
4 *1954:A_N 0
5 *1987:A 0.000163885
6 *1988:A_N 3.60847e-05
7 *1953:A 0
8 *1919:A 0.000194759
9 *1920:A_N 0.000215248
10 *1886:A_N 7.20972e-05
11 *1828:B 7.00992e-05
12 *1827:B 0.000121779
13 *1826:Y 0.000387265
14 *312:185 0.000175301
15 *312:170 0.000350909
16 *312:166 0.00833387
17 *312:164 0.00819679
18 *312:132 0.00161854
19 *312:126 0.00375263
20 *312:116 0.00261407
21 *312:103 0.000425016
22 *312:99 0.00314363
23 *312:86 0.00328414
24 *312:73 0.00126211
25 *312:65 0.00435918
26 *312:63 0.00361009
27 *312:57 0.000380686
28 *312:46 0.00314281
29 *312:31 0.00309027
30 *312:20 0.00340162
31 *312:14 0.00438532
32 *312:6 0.00153884
33 *1886:A_N *1886:B 8.00842e-05
34 *1920:A_N *339:47 1.54008e-05
35 *1920:A_N *339:53 8.00842e-05
36 *1988:A_N *2006:B 8.00842e-05
37 *2022:A_N *2022:B 4.38923e-05
38 *312:6 *319:8 0
39 *312:6 *320:22 0
40 *312:14 *2031:A 0.000827101
41 *312:14 *321:23 0.000166035
42 *312:20 *321:23 0.000929126
43 *312:20 *328:14 0.000234332
44 *312:20 *345:14 0
45 *312:20 *346:18 0
46 *312:20 *346:20 0
47 *312:20 *346:22 0
48 *312:20 *346:34 0.000125292
49 *312:20 *346:40 0
50 *312:20 *346:42 0
51 *312:20 *346:46 0
52 *312:31 *321:23 0.00012816
53 *312:46 *319:64 0
54 *312:46 *321:23 0.00222518
55 *312:46 *326:109 0
56 *312:46 *331:31 0.000288173
57 *312:46 *331:50 0.00175807
58 *312:46 *332:48 0.00284359
59 *312:46 *333:18 0
60 *312:46 *345:14 0
61 *312:46 *346:8 0
62 *312:57 *331:50 0
63 *312:57 *332:48 0.000212648
64 *312:63 *313:80 0.000269236
65 *312:65 *334:67 0.00131386
66 *312:73 *322:54 0
67 *312:73 *325:52 0
68 *312:73 *333:55 0
69 *312:73 *335:63 0.00108472
70 *312:86 *333:55 0
71 *312:86 *335:63 0.000267148
72 *312:99 *325:66 0
73 *312:99 *333:55 0.00475983
74 *312:99 *335:63 0
75 *312:99 *335:82 0
76 *312:99 *341:31 0.000551982
77 *312:99 *341:59 0.00042602
78 *312:116 *316:72 0.000288014
79 *312:116 *341:45 0
80 *312:126 *314:119 0
81 *312:126 *319:138 0
82 *312:126 *319:162 0
83 *312:132 *1990:A 0
84 *312:132 *2006:B 0.000257081
85 *312:132 *2007:A 0.000176015
86 *312:132 *319:162 0
87 *312:166 *315:18 0
88 *312:166 *319:10 0
89 *312:166 *345:97 0
90 *312:166 *345:99 0
91 *312:170 *2029:B 0
92 *312:185 *2022:B 7.51285e-05
93 output_no[99] *312:103 0.000240377
94 output_no[99] *312:116 0.000337333
95 output_o[114] *312:132 0
96 output_o[36] *312:14 0
97 output_o[51] *1827:B 0.00014391
98 output_o[51] *1828:B 0.00012164
99 output_o[6] *312:170 0
100 output_o[6] *312:185 0
101 output_o[7] *2022:A_N 7.6234e-05
102 output_o[7] *312:170 0.0001773
103 output_o[84] *1919:A 0.000176369
104 output_o[99] *312:103 0.000175693
105 *1782:A *312:6 0.000112426
106 *1782:A *312:14 0.00014391
107 *1827:A *1828:B 0.00012164
108 *50:16 *312:185 0
109 *127:10 *312:6 0
110 *153:10 *312:116 0.000288014
111 *155:12 *312:126 0.000433567
112 *155:18 *312:126 0.00282103
113 *155:18 *312:132 0.00268075
114 *162:10 *312:132 0
115 *233:8 *312:20 0.000394566
116 *248:10 *1919:A 0
117 *248:10 *312:73 0.000181192
118 *248:10 *312:86 0.00018211
119 *274:26 *312:166 0.000128247
120 *284:18 *312:166 0
121 *288:230 *312:20 7.48209e-05
122 *295:8 *312:166 0
123 *295:29 *312:166 0.000181279
124 *295:38 *312:166 0
125 *300:10 *312:20 0
126 *300:16 *312:20 2.20193e-05
127 *300:22 *312:14 0
128 *302:18 *312:14 0.000395177
129 *305:12 *312:46 0
130 *305:18 *312:46 0
131 *306:10 *312:166 0
132 *308:14 *312:166 0
133 *308:29 *312:166 0
134 *308:52 *312:65 0
135 *310:99 *312:65 0
136 *310:105 *312:65 0
137 *310:126 *312:126 0
138 *311:16 *1827:B 0
*RES
1 *1826:Y *312:6 23.5638 
2 *312:6 *312:14 31.5566 
3 *312:14 *312:20 27.4392 
4 *312:20 *1827:B 41.1845 
5 *312:20 *312:31 0.5974 
6 *312:31 *1828:B 40.8189 
7 *312:31 *312:46 36.3693 
8 *312:46 *1886:A_N 40.9682 
9 *312:46 *312:57 1.0918 
10 *312:57 *312:63 41.8334 
11 *312:63 *312:65 34.2166 
12 *312:65 *312:73 49.1064 
13 *312:73 *1920:A_N 41.8334 
14 *312:73 *312:86 1.6583 
15 *312:86 *1919:A 41.9673 
16 *312:86 *312:99 34.711 
17 *312:99 *312:103 21.6171 
18 *312:103 *1953:A 20 
19 *312:103 *312:116 43.605 
20 *312:116 *312:126 46.2135 
21 *312:126 *312:132 38.7769 
22 *312:132 *1988:A_N 20.5356 
23 *312:132 *1987:A 21.8746 
24 *312:116 *1954:A_N 20 
25 *312:57 *1885:A 40.9682 
26 *312:6 *312:164 20 
27 *312:164 *312:166 69.8134 
28 *312:166 *312:170 21.6171 
29 *312:170 *2022:A_N 20.5098 
30 *312:170 *312:185 41.6898 
31 *312:185 *2021:A 20 
*END

*D_NET *313 0.103325
*CONN
*I *1832:B I *D sg13g2_nand2_1
*I *1922:A I *D sg13g2_nand2_1
*I *1956:A I *D sg13g2_nand2_1
*I *1990:A I *D sg13g2_nand2_1
*I *1888:A I *D sg13g2_nand2_1
*I *2024:A I *D sg13g2_nand2_1
*I *1829:Y O *D sg13g2_nor3_1
*CAP
1 *1832:B 0
2 *1922:A 0
3 *1956:A 2.92453e-05
4 *1990:A 0.000803618
5 *1888:A 0
6 *2024:A 0.000142077
7 *1829:Y 2.77263e-05
8 *313:163 3.45495e-05
9 *313:152 0.000102672
10 *313:128 0.00357339
11 *313:126 0.00367717
12 *313:114 0.00112631
13 *313:106 0.00353476
14 *313:86 0.00405263
15 *313:82 0.00299056
16 *313:80 0.00281022
17 *313:71 0.000108345
18 *313:63 0.0018235
19 *313:57 0.00236799
20 *313:51 0.00226081
21 *313:47 0.00426202
22 *313:45 0.00391896
23 *313:26 0.00207057
24 *313:22 0.00199397
25 *313:16 0.00193304
26 *313:6 0.00270114
27 *1990:A *2007:B 0
28 *313:16 *315:14 0
29 *313:16 *345:56 0.00183564
30 *313:16 *346:60 0
31 *313:26 *315:14 0
32 *313:26 *326:12 0
33 *313:26 *345:70 0.00305991
34 *313:47 *315:38 0
35 *313:51 *315:42 0
36 *313:57 *323:41 0
37 *313:57 *326:31 0.00270634
38 *313:63 *323:41 0.00416145
39 *313:63 *329:46 0
40 *313:63 *333:37 0
41 *313:71 *337:60 0.000284153
42 *313:71 *338:37 0.000231726
43 *313:71 *338:39 7.46317e-05
44 *313:80 *314:87 0.000462543
45 *313:82 *314:79 7.56869e-05
46 *313:82 *314:98 0.00879094
47 *313:82 *334:67 0
48 *313:86 *314:108 0
49 *313:86 *332:72 0
50 *313:114 *330:89 5.30319e-05
51 *313:114 *342:74 7.3287e-05
52 *313:126 *314:123 0
53 *313:126 *330:89 0.00034195
54 *313:126 *342:65 0.000235556
55 *313:126 *342:74 0.000106045
56 *313:128 *319:138 0
57 *313:128 *319:162 0
58 *313:128 *323:71 0.00306344
59 *313:163 *315:124 0
60 *313:163 *332:10 0
61 output_no[100] *1956:A 1.54008e-05
62 output_no[16] *313:26 0.00183561
63 output_no[26] *313:16 0.000240331
64 output_no[2] *313:26 0
65 output_no[5] *313:26 0
66 output_no[84] *313:152 0.000111584
67 output_no[99] *313:126 0.000456355
68 output_o[116] *1990:A 0
69 output_o[27] *313:16 0
70 output_o[84] *313:152 0
71 output_o[9] *2024:A 0.000240377
72 *1767:A_N *313:6 0
73 *1767:A_N *313:45 0.000198687
74 *1829:A *313:45 0
75 *1829:B *313:16 0
76 *2069:B *313:16 0
77 *3:298 *313:51 0
78 *3:304 *313:51 0
79 *4:32 *313:45 0
80 *5:29 *313:45 0.000305966
81 *5:39 *313:45 4.77425e-05
82 *53:10 *313:26 0.000288587
83 *61:18 *313:26 0
84 *83:8 *2024:A 0.000208035
85 *139:10 *313:26 0.0031587
86 *178:10 *313:47 0.0117026
87 *184:10 *313:16 0
88 *282:10 *313:45 0
89 *282:14 *313:45 0
90 *293:24 *313:26 0
91 *301:22 *313:16 0.000128247
92 *301:28 *313:16 0
93 *302:18 *313:16 0
94 *306:29 *313:47 0.0107337
95 *310:33 *313:45 0
96 *310:70 *313:57 0
97 *310:70 *313:63 0
98 *310:78 *313:63 0.00121272
99 *310:154 *313:106 0.00026975
100 *312:63 *313:80 0.000269236
101 *312:132 *1990:A 0
*RES
1 *1829:Y *313:6 20.3502 
2 *313:6 *313:16 39.9717 
3 *313:16 *313:22 40.8446 
4 *313:22 *313:26 49.5198 
5 *313:26 *2024:A 21.6171 
6 *313:6 *313:45 26.9417 
7 *313:45 *313:47 62.6446 
8 *313:47 *313:51 31.3506 
9 *313:51 *313:57 35.965 
10 *313:57 *313:63 39.4876 
11 *313:63 *313:71 41.6583 
12 *313:71 *1888:A 20 
13 *313:63 *313:80 23.9964 
14 *313:80 *313:82 41.3854 
15 *313:82 *313:86 25.0779 
16 *313:86 *313:106 33.9018 
17 *313:106 *313:114 41.5347 
18 *313:114 *313:126 49.2803 
19 *313:126 *313:128 35.947 
20 *313:128 *1990:A 47.0246 
21 *313:114 *1956:A 40.3193 
22 *313:86 *313:152 40.9682 
23 *313:152 *1922:A 20 
24 *313:51 *313:163 40.3193 
25 *313:163 *1832:B 20 
*END

*D_NET *314 0.0983231
*CONN
*I *1989:A I *D sg13g2_nor2_1
*I *1955:A I *D sg13g2_nor2_1
*I *1921:A I *D sg13g2_nor2_1
*I *1887:A I *D sg13g2_nor2_1
*I *1831:B I *D sg13g2_nor2_1
*I *2023:A I *D sg13g2_nor2_1
*I *1830:Y O *D sg13g2_nand3b_1
*CAP
1 *1989:A 0.000223709
2 *1955:A 5.13186e-05
3 *1921:A 0
4 *1887:A 0.000107576
5 *1831:B 0.0007103
6 *2023:A 0
7 *1830:Y 0.000258649
8 *314:123 0.000911752
9 *314:119 0.00359883
10 *314:117 0.00315891
11 *314:108 0.000481096
12 *314:100 0.000677904
13 *314:98 0.00255604
14 *314:87 0.000502704
15 *314:79 0.00312466
16 *314:75 0.000934042
17 *314:69 0.000904179
18 *314:63 0.00131814
19 *314:44 0.00240484
20 *314:40 0.00502054
21 *314:38 0.00475915
22 *314:22 0
23 *314:18 0.00283398
24 *314:12 0.0035804
25 *314:6 0.000746413
26 *1831:B *2043:B 4.77425e-05
27 *1831:B *332:10 0.000144655
28 *314:18 *317:18 2.22073e-05
29 *314:40 *315:38 0
30 *314:69 *1863:B 0.000208035
31 *314:69 *331:27 1.51734e-05
32 *314:75 *320:62 0.00328159
33 *314:87 *331:50 0
34 *314:87 *332:48 0.000128537
35 *314:98 *334:67 0
36 *314:108 *316:70 0
37 *314:119 *319:138 0
38 *314:119 *320:88 0
39 *1737:B *314:44 0.000144771
40 *1823:B *314:44 0
41 *1827:A *1831:B 0.000208035
42 *1868:B *1831:B 7.98582e-05
43 *1868:B *314:44 8.02269e-05
44 *1869:C *1831:B 4.77425e-05
45 *6:53 *314:38 0
46 *7:28 *314:63 0
47 *138:14 *314:18 0.00866599
48 *157:8 *314:123 0
49 *266:14 *314:40 0.0106141
50 *269:8 *1831:B 0
51 *269:8 *314:44 0
52 *277:81 *1831:B 6.46834e-05
53 *277:93 *314:63 0.000235484
54 *286:37 *314:75 0.0021061
55 *286:39 *314:75 0
56 *286:39 *314:119 0
57 *307:29 *314:18 0
58 *307:81 *314:75 0.000822239
59 *308:71 *314:119 0
60 *309:40 *314:63 0.000441971
61 *310:16 *314:18 0.00586057
62 *310:33 *314:40 0.00218213
63 *310:41 *314:40 0
64 *310:49 *314:44 0
65 *310:99 *314:79 0.000663777
66 *310:99 *314:98 0.00353309
67 *310:105 *314:98 0
68 *310:122 *314:119 0.00689039
69 *311:40 *314:63 0.00363973
70 *312:126 *314:119 0
71 *313:80 *314:87 0.000462543
72 *313:82 *314:79 7.56869e-05
73 *313:82 *314:98 0.00879094
74 *313:86 *314:108 0
75 *313:126 *314:123 0
*RES
1 *1830:Y *314:6 40 
2 *314:6 *314:12 47.2409 
3 *314:12 *314:18 46.2573 
4 *314:18 *314:22 40 
5 *314:22 *2023:A 40 
6 *1830:Y *314:38 42.266 
7 *314:38 *314:40 56.2174 
8 *314:40 *314:44 25.0779 
9 *314:44 *1831:B 26.9216 
10 *314:44 *314:63 39.5288 
11 *314:63 *314:69 41.4008 
12 *314:69 *314:75 36.1504 
13 *314:75 *314:79 23.0694 
14 *314:79 *314:87 43.7286 
15 *314:87 *1887:A 40.9682 
16 *314:79 *314:98 40.6438 
17 *314:98 *314:100 20 
18 *314:100 *314:108 44.0994 
19 *314:108 *1921:A 20 
20 *314:100 *314:117 21.8334 
21 *314:117 *314:119 34.9582 
22 *314:119 *314:123 25.2942 
23 *314:123 *1955:A 20.5356 
24 *314:123 *1989:A 22.6162 
*END

*D_NET *315 0.103005
*CONN
*I *1836:B I *D sg13g2_nand2_1
*I *1958:A I *D sg13g2_nand2_1
*I *1992:A I *D sg13g2_nand2_1
*I *1924:A I *D sg13g2_nand2_1
*I *1890:A I *D sg13g2_nand2_1
*I *2026:A I *D sg13g2_nand2_1
*I *1833:Y O *D sg13g2_nor3_1
*CAP
1 *1836:B 0
2 *1958:A 0
3 *1992:A 0
4 *1924:A 6.27599e-05
5 *1890:A 6.03019e-05
6 *2026:A 6.15059e-05
7 *1833:Y 0.0014676
8 *315:124 3.40675e-05
9 *315:108 0.00124096
10 *315:102 0.00209882
11 *315:94 0.000914226
12 *315:90 5.63639e-05
13 *315:86 0.00211362
14 *315:75 6.27599e-05
15 *315:71 0.00477747
16 *315:69 0.00277909
17 *315:54 0.000587078
18 *315:50 0.00233373
19 *315:46 0.00203081
20 *315:42 0.00118372
21 *315:38 0.00699565
22 *315:36 0.00675963
23 *315:18 0.00106585
24 *315:14 0.00295406
25 *315:8 0.00261231
26 *315:14 *2015:B 0.000128765
27 *315:14 *2020:B 0
28 *315:14 *345:56 0
29 *315:14 *345:70 0.00311224
30 *315:14 *346:60 0
31 *315:14 *346:64 0.00017625
32 *315:18 *345:84 0
33 *315:18 *345:95 0.00034245
34 *315:38 *320:33 0
35 *315:50 *319:70 0
36 *315:50 *321:37 0
37 *315:50 *323:26 0.00168909
38 *315:50 *323:41 0.00472355
39 *315:50 *335:24 0
40 *315:54 *319:84 0.000604001
41 *315:54 *324:33 0.0013543
42 *315:54 *335:43 7.34423e-05
43 *315:54 *338:39 0
44 *315:54 *338:41 0
45 *315:69 *317:84 4.669e-05
46 *315:69 *321:45 0
47 *315:69 *333:45 0
48 *315:71 *317:74 7.56869e-05
49 *315:71 *317:93 0.0086287
50 *315:71 *323:41 0
51 *315:71 *326:43 0
52 *315:71 *326:58 0
53 *315:71 *328:72 0.00158352
54 *315:71 *329:54 0
55 *315:71 *335:47 0
56 *315:86 *317:93 0.000503086
57 *315:86 *317:114 0
58 *315:86 *328:72 0.00331093
59 *315:86 *328:91 0.00459155
60 *315:94 *1957:A 0
61 *315:102 *2001:A 0.00034112
62 *315:102 *325:66 0.00241651
63 *315:102 *330:89 0.00233213
64 *315:102 *332:89 0.000768257
65 *315:102 *341:162 0
66 *315:102 *344:137 0
67 *315:108 *2011:A 0
68 *315:108 *330:89 0.000288588
69 *315:108 *330:112 0.00260342
70 *315:108 *344:137 0.000257324
71 *315:108 *344:154 0.0014577
72 output_no[101] *315:102 0.000111568
73 output_no[117] *315:108 0.000143453
74 output_no[14] *315:14 0
75 output_no[15] *315:14 0.000144683
76 output_no[23] *315:8 0
77 output_no[69] *1890:A 4.77425e-05
78 output_o[10] *2026:A 0
79 output_o[24] *315:8 0
80 *1781:B *315:8 0
81 *1833:B *315:36 1.54008e-05
82 *1837:B *315:36 0
83 *2061:B *315:8 0
84 *2063:B *315:8 0
85 *39:12 *315:108 0.000111112
86 *41:10 *315:108 0.00204374
87 *50:16 *315:18 0
88 *143:8 *315:102 0
89 *266:14 *315:38 0
90 *293:24 *315:14 0
91 *296:8 *315:36 0
92 *297:12 *315:8 0
93 *306:10 *315:18 0
94 *306:29 *315:38 0.0130652
95 *308:22 *315:14 0
96 *310:33 *315:38 0.00366069
97 *312:166 *315:18 0
98 *313:16 *315:14 0
99 *313:26 *315:14 0
100 *313:47 *315:38 0
101 *313:51 *315:42 0
102 *313:163 *315:124 0
103 *314:40 *315:38 0
*RES
1 *1833:Y *315:8 45.5105 
2 *315:8 *315:14 40.6309 
3 *315:14 *315:18 30.2382 
4 *315:18 *2026:A 40.5356 
5 *1833:Y *315:36 46.8083 
6 *315:36 *315:38 75.2518 
7 *315:38 *315:42 30.918 
8 *315:42 *315:46 20.7519 
9 *315:46 *315:50 49.5198 
10 *315:50 *315:54 26.283 
11 *315:54 *1890:A 40.5356 
12 *315:54 *315:69 40.9682 
13 *315:69 *315:71 40.1494 
14 *315:71 *315:75 40 
15 *315:75 *1924:A 40.5356 
16 *315:71 *315:86 36.4414 
17 *315:86 *315:90 40 
18 *315:90 *315:94 20.5356 
19 *315:94 *315:102 36.2843 
20 *315:102 *315:108 40.5073 
21 *315:108 *1992:A 20 
22 *315:94 *1958:A 20 
23 *315:42 *315:124 40.3193 
24 *315:124 *1836:B 20 
*END

*D_NET *316 0.0605647
*CONN
*I *2025:A I *D sg13g2_nor2_1
*I *1835:B I *D sg13g2_nor2_1
*I *1991:A I *D sg13g2_nor2_1
*I *1957:A I *D sg13g2_nor2_1
*I *1923:A I *D sg13g2_nor2_1
*I *1889:A I *D sg13g2_nor2_1
*I *1834:Y O *D sg13g2_nand4_1
*CAP
1 *2025:A 0
2 *1835:B 0.00015316
3 *1991:A 2.92417e-05
4 *1957:A 0.0002141
5 *1923:A 5.78585e-05
6 *1889:A 0
7 *1834:Y 0.000584035
8 *316:74 0.000243341
9 *316:72 0.0031603
10 *316:70 0.00334824
11 *316:59 0.00165182
12 *316:55 0.00149648
13 *316:47 0.000819984
14 *316:36 0.000880074
15 *316:32 0.00343959
16 *316:30 0.00328904
17 *316:28 0.000229868
18 *316:24 0.00196176
19 *316:14 0.00193246
20 *316:10 0.000631439
21 *1957:A *1989:B 0.000112426
22 *1957:A *344:70 0.000208227
23 *1991:A *344:70 3.23417e-05
24 *316:10 *318:10 0
25 *316:10 *346:42 0.000234224
26 *316:10 *346:44 0.00012816
27 *316:24 *318:22 0
28 *316:24 *322:20 0.00290085
29 *316:24 *335:16 0.00204745
30 *316:32 *318:22 0.000447182
31 *316:32 *318:33 0
32 *316:32 *324:18 0.0024162
33 *316:32 *324:33 0.00148845
34 *316:32 *333:49 0
35 *316:47 *321:45 0.000981828
36 *316:47 *321:60 0.0013312
37 *316:47 *331:50 0
38 *316:47 *332:48 0.00273725
39 *316:47 *338:123 0
40 *316:59 *1909:B 0.000340288
41 *316:59 *321:60 0
42 *316:59 *325:56 0.00204016
43 *316:59 *331:83 0.00076728
44 *316:59 *332:54 0.00268894
45 *316:59 *338:123 0.00108988
46 *316:59 *338:134 0.000500992
47 *316:59 *338:145 0.000501459
48 *316:59 *338:156 0.000500992
49 *316:59 *339:10 0.000500609
50 *316:59 *339:21 0.00049554
51 *316:59 *339:32 0.000604777
52 *316:59 *339:47 0.000288087
53 *316:72 *324:63 0
54 *316:72 *344:10 0
55 *316:72 *344:27 0.000500565
56 *316:72 *344:70 7.51285e-05
57 output_no[44] *316:24 0
58 output_no[45] *316:10 0.000465114
59 output_o[45] *316:14 8.00842e-05
60 output_o[45] *316:24 0.000272834
61 output_o[53] *1835:B 0.000127951
62 output_o[53] *316:28 0.000112426
63 output_o[69] *316:36 0.000143351
64 *10:42 *316:72 0.00487824
65 *96:10 *316:32 0.00023464
66 *97:10 *316:32 0.000285866
67 *153:10 *316:72 0
68 *154:10 *316:72 0
69 *154:16 *316:72 0.00149339
70 *158:8 *1957:A 0
71 *207:10 *316:24 2.21839e-05
72 *225:10 *316:32 0.000447703
73 *228:10 *316:32 0.00012816
74 *230:10 *316:32 0.000341534
75 *233:8 *316:10 0.00012816
76 *278:20 *316:24 0.000341205
77 *288:37 *316:10 0.000690544
78 *288:43 *316:24 0
79 *312:116 *316:72 0.000288014
80 *314:108 *316:70 0
81 *315:94 *1957:A 0
*RES
1 *1834:Y *316:10 46.6641 
2 *316:10 *316:14 20.5356 
3 *316:14 *316:24 45.3483 
4 *316:24 *316:28 20.7519 
5 *316:28 *316:30 20 
6 *316:30 *316:32 35.6998 
7 *316:32 *316:36 21.4008 
8 *316:36 *1889:A 20 
9 *316:36 *316:47 33.9256 
10 *316:47 *316:55 40.8858 
11 *316:55 *316:59 47.0478 
12 *316:59 *1923:A 20.5356 
13 *316:59 *316:70 21.6171 
14 *316:70 *316:72 36.4414 
15 *316:72 *316:74 20 
16 *316:74 *1957:A 22.0497 
17 *316:74 *1991:A 20.3193 
18 *316:28 *1835:B 21.4008 
19 *316:14 *2025:A 20 
*END

*D_NET *317 0.0777004
*CONN
*I *1994:A I *D sg13g2_nand2_1
*I *1960:A I *D sg13g2_nand2_1
*I *1926:A I *D sg13g2_nand2_1
*I *1892:A I *D sg13g2_nand2_1
*I *1840:B I *D sg13g2_nand2_1
*I *2028:A I *D sg13g2_nand2_1
*I *1837:Y O *D sg13g2_nor3_1
*CAP
1 *1994:A 0
2 *1960:A 0
3 *1926:A 0
4 *1892:A 0
5 *1840:B 5.56798e-05
6 *2028:A 6.42716e-05
7 *1837:Y 0
8 *317:137 0
9 *317:133 0.00311224
10 *317:120 4.7019e-05
11 *317:114 0.00680379
12 *317:112 0.00380286
13 *317:103 0.000103919
14 *317:95 0.000262252
15 *317:93 0.00267976
16 *317:84 0.000242429
17 *317:74 0.005747
18 *317:53 0.000565212
19 *317:41 0.00475746
20 *317:37 0.00588771
21 *317:35 0.00467289
22 *317:22 6.42716e-05
23 *317:18 0.00260396
24 *317:12 0.00353557
25 *317:8 0.00113989
26 *317:6 0
27 *317:18 *327:18 0
28 *317:74 *323:41 0
29 *317:74 *330:48 0
30 *317:84 *319:84 0
31 *317:84 *319:101 0
32 *317:84 *321:45 0
33 *317:84 *332:48 0
34 *317:84 *337:33 0
35 *317:84 *337:58 7.34783e-05
36 *317:84 *338:31 0.000128355
37 *317:84 *338:35 0.000283963
38 *317:93 *330:48 0
39 *317:93 *334:67 0
40 *317:114 *334:67 0
41 *317:114 *334:82 0
42 *317:133 *328:91 0
43 *317:133 *328:112 0
44 *317:133 *334:82 0.00101468
45 output_no[54] *1840:B 4.77425e-05
46 *138:14 *317:18 0
47 *189:16 *317:37 0.0151063
48 *306:79 *317:93 0
49 *307:29 *317:18 0.00157349
50 *308:52 *317:93 0
51 *310:16 *317:18 0.00404786
52 *310:154 *317:133 0
53 *314:18 *317:18 2.22073e-05
54 *315:69 *317:84 4.669e-05
55 *315:71 *317:74 7.56869e-05
56 *315:71 *317:93 0.0086287
57 *315:86 *317:93 0.000503086
58 *315:86 *317:114 0
*RES
1 *1837:Y *317:6 40 
2 *317:6 *317:8 20 
3 *317:8 *317:12 28.5387 
4 *317:12 *317:18 34.8861 
5 *317:18 *317:22 40 
6 *317:22 *2028:A 40.5356 
7 *317:8 *317:35 22.266 
8 *317:35 *317:37 78.074 
9 *317:37 *317:41 4.27223 
10 *317:41 *317:53 45.2854 
11 *317:53 *1840:B 40.5356 
12 *317:41 *317:74 11.7173 
13 *317:74 *317:84 42.6883 
14 *317:84 *1892:A 40 
15 *317:74 *317:93 42.127 
16 *317:93 *317:95 20 
17 *317:95 *317:103 40.8549 
18 *317:103 *1926:A 20 
19 *317:95 *317:112 21.4008 
20 *317:112 *317:114 34.9582 
21 *317:114 *317:120 40.3193 
22 *317:120 *1960:A 40 
23 *317:114 *317:133 34.8861 
24 *317:133 *317:137 40 
25 *317:137 *1994:A 40 
*END

*D_NET *318 0.0616581
*CONN
*I *2027:A I *D sg13g2_nor2_1
*I *1993:A I *D sg13g2_nor2_1
*I *1959:A I *D sg13g2_nor2_1
*I *1925:A I *D sg13g2_nor2_1
*I *1891:A I *D sg13g2_nor2_1
*I *1839:B I *D sg13g2_nor2_1
*I *1838:Y O *D sg13g2_nand4_1
*CAP
1 *2027:A 0
2 *1993:A 0
3 *1959:A 0.000253305
4 *1925:A 0.000508458
5 *1891:A 0
6 *1839:B 0.00019818
7 *1838:Y 0.000770439
8 *318:63 0.00051466
9 *318:59 0.00278539
10 *318:48 0.00570913
11 *318:46 0.00319356
12 *318:37 0.00075825
13 *318:33 0.00361516
14 *318:22 0.0057764
15 *318:10 0.00297484
16 *1959:A *319:142 0
17 *1959:A *341:89 0.000272911
18 *318:10 *2027:B 4.77425e-05
19 *318:22 *322:20 0
20 *318:22 *324:18 0
21 *318:22 *326:27 0
22 *318:22 *335:16 0.00205049
23 *318:22 *345:20 0.000746598
24 *318:22 *345:26 0.00109185
25 *318:33 *322:20 0
26 *318:33 *322:35 0.00503872
27 *318:33 *333:49 0
28 *318:33 *337:47 0
29 *318:48 *320:62 0.00124972
30 *318:48 *320:73 0.00747757
31 *318:48 *327:45 0.00338593
32 *318:59 *320:73 0.00114199
33 *318:59 *320:88 0.00352468
34 output_no[45] *318:10 0
35 output_no[45] *318:22 0.000208035
36 output_no[69] *318:37 0
37 output_o[45] *318:10 0
38 output_o[45] *318:22 0
39 output_o[54] *1839:B 0.00020799
40 output_o[70] *318:37 0
41 *1805:A *318:10 0
42 *1806:B *318:10 0.000144495
43 *96:10 *318:33 0.000235141
44 *97:10 *318:33 0.000286366
45 *207:10 *318:22 0.000341949
46 *228:10 *318:33 0.000128248
47 *230:10 *318:33 0.000342035
48 *288:43 *318:22 0.000234311
49 *306:114 *318:59 0.000342449
50 *306:125 *318:59 0.00293916
51 *307:41 *318:22 0
52 *308:79 *318:59 0.000181464
53 *308:90 *318:59 0.00253335
54 *309:57 *318:48 0
55 *309:68 *318:48 0
56 *309:68 *318:59 0
57 *316:10 *318:10 0
58 *316:24 *318:22 0
59 *316:32 *318:22 0.000447182
60 *316:32 *318:33 0
*RES
1 *1838:Y *318:10 26.7053 
2 *318:10 *318:22 46.2238 
3 *318:22 *1839:B 41.8334 
4 *318:22 *318:33 35.6998 
5 *318:33 *318:37 21.8334 
6 *318:37 *1891:A 20 
7 *318:37 *318:46 24.429 
8 *318:46 *318:48 40.3966 
9 *318:48 *1925:A 44.429 
10 *318:48 *318:59 36.9358 
11 *318:59 *318:63 22.266 
12 *318:63 *1959:A 22.6162 
13 *318:63 *1993:A 20 
14 *318:10 *2027:A 20 
*END

*D_NET *319 0.100552
*CONN
*I *1996:A_N I *D sg13g2_nand2b_1
*I *1995:A I *D sg13g2_nor2_1
*I *1961:A I *D sg13g2_nor2_1
*I *1962:A_N I *D sg13g2_nand2b_1
*I *1927:A I *D sg13g2_nor2_1
*I *1928:A_N I *D sg13g2_nand2b_1
*I *1893:A I *D sg13g2_nor2_1
*I *1894:A_N I *D sg13g2_nand2b_1
*I *1843:B I *D sg13g2_or2_1
*I *1842:B I *D sg13g2_nor2_1
*I *2030:A_N I *D sg13g2_nand2b_1
*I *2029:A I *D sg13g2_nor2_1
*I *1841:Y O *D sg13g2_nand4_1
*CAP
1 *1996:A_N 0
2 *1995:A 0
3 *1961:A 8.67934e-05
4 *1962:A_N 0.000165262
5 *1927:A 5.15469e-05
6 *1928:A_N 0.000192128
7 *1893:A 0
8 *1894:A_N 0
9 *1843:B 0
10 *1842:B 5.78122e-05
11 *2030:A_N 0.000269728
12 *2029:A 0
13 *1841:Y 0.000526092
14 *319:176 0.00017212
15 *319:170 0.000868091
16 *319:162 0.00344102
17 *319:142 0.000892201
18 *319:138 0.00592482
19 *319:120 0.000963103
20 *319:116 0.0052299
21 *319:110 0.00263271
22 *319:101 0.000825519
23 *319:84 0.000669602
24 *319:70 0.00204775
25 *319:64 0.00240193
26 *319:49 0.000939358
27 *319:38 0.000401864
28 *319:34 0.00304614
29 *319:14 0.000338293
30 *319:10 0.00535987
31 *319:8 0.00859871
32 *1928:A_N *1928:B 1.54008e-05
33 *1928:A_N *339:90 0
34 *1962:A_N *1962:B 1.54008e-05
35 *2030:A_N *2029:B 0
36 *2030:A_N *2030:B 4.77425e-05
37 *319:14 *2029:B 1.54285e-05
38 *319:34 *2042:A 0.000393281
39 *319:34 *327:16 0.000501592
40 *319:34 *327:37 0.00774574
41 *319:34 *330:31 0.00220082
42 *319:49 *345:14 0.000182519
43 *319:64 *326:37 0.000207307
44 *319:64 *345:14 0.000876324
45 *319:70 *321:37 0.00489225
46 *319:70 *333:45 0.000112223
47 *319:70 *335:47 0.000717913
48 *319:84 *324:33 0.000606176
49 *319:84 *337:33 1.56814e-05
50 *319:84 *337:37 0
51 *319:84 *338:35 0.000262501
52 *319:84 *338:37 0.000500009
53 *319:101 *337:33 0.000305104
54 *319:101 *337:37 7.52158e-05
55 *319:101 *338:14 0.00012816
56 *319:101 *338:31 0.000128663
57 *319:110 *1896:A 0
58 *319:116 *323:60 0
59 *319:120 *321:73 0
60 *319:138 *323:71 0
61 *319:142 *321:83 0.00036971
62 *319:170 *1994:B 0.000128508
63 *319:170 *1996:B 4.77425e-05
64 *319:176 *333:98 0
65 *319:176 *343:166 7.51285e-05
66 output_no[118] *319:170 0
67 output_no[124] *319:176 0
68 output_no[126] *319:176 0.000501548
69 output_o[118] *319:170 0.00035298
70 output_o[36] *319:8 0
71 output_o[8] *2030:A_N 0
72 output_o[8] *319:14 0
73 *1748:B *319:10 0
74 *1765:A *319:10 0.00114307
75 *1775:C *319:8 0
76 *1780:B *319:8 0
77 *1841:A *319:8 0.000143571
78 *1959:A *319:142 0
79 *7:141 *319:8 0
80 *8:7 *319:120 0
81 *10:17 *319:142 0
82 *127:12 *319:10 0
83 *162:10 *319:162 0
84 *170:12 *319:10 0.000498914
85 *170:12 *319:34 0.0029792
86 *271:46 *319:116 0.00472293
87 *276:10 *319:10 0
88 *276:10 *319:34 0
89 *282:20 *319:10 0
90 *284:12 *319:10 0.00487023
91 *284:18 *319:10 0.00274523
92 *286:39 *319:116 0.00616765
93 *289:10 *319:10 0
94 *289:12 *319:10 0
95 *290:10 *319:10 0
96 *294:42 *319:8 0
97 *305:26 *319:64 0
98 *305:30 *319:64 0
99 *305:32 *319:64 0
100 *305:34 *319:64 0
101 *306:48 *319:34 0
102 *308:29 *319:10 0
103 *308:29 *319:34 0.0013963
104 *310:122 *319:116 0.00251169
105 *310:122 *319:138 0.00524619
106 *312:6 *319:8 0
107 *312:46 *319:64 0
108 *312:126 *319:138 0
109 *312:126 *319:162 0
110 *312:132 *319:162 0
111 *312:166 *319:10 0
112 *313:128 *319:138 0
113 *313:128 *319:162 0
114 *314:119 *319:138 0
115 *315:50 *319:70 0
116 *315:54 *319:84 0.000604001
117 *317:84 *319:84 0
118 *317:84 *319:101 0
*RES
1 *1841:Y *319:8 44.6453 
2 *319:8 *319:10 68.083 
3 *319:10 *319:14 20.7519 
4 *319:14 *2029:A 20 
5 *319:14 *2030:A_N 22.6162 
6 *319:8 *319:34 46.5045 
7 *319:34 *319:38 22.266 
8 *319:38 *1842:B 20.5356 
9 *319:38 *319:49 20.8446 
10 *319:49 *1843:B 40 
11 *319:49 *319:64 48.6108 
12 *319:64 *319:70 43.7827 
13 *319:70 *319:84 47.3439 
14 *319:84 *1894:A_N 20 
15 *319:84 *319:101 42.487 
16 *319:101 *1893:A 20 
17 *319:101 *319:110 25.5105 
18 *319:110 *319:116 40.7571 
19 *319:116 *319:120 25.7268 
20 *319:120 *1928:A_N 22.369 
21 *319:120 *1927:A 20.5356 
22 *319:116 *319:138 35.4526 
23 *319:138 *319:142 25.7268 
24 *319:142 *1962:A_N 22.1218 
25 *319:142 *1961:A 20.8858 
26 *319:138 *319:162 31.003 
27 *319:162 *319:170 26.8598 
28 *319:170 *319:176 42.3278 
29 *319:176 *1995:A 20 
30 *319:170 *1996:A_N 20 
*END

*D_NET *320 0.0767193
*CONN
*I *1998:A I *D sg13g2_nand2_1
*I *1964:A I *D sg13g2_nand2_1
*I *1930:A I *D sg13g2_nand2_1
*I *1896:A I *D sg13g2_nand2_1
*I *1847:B I *D sg13g2_nand2_1
*I *2032:A I *D sg13g2_nand2_1
*I *1844:X O *D sg13g2_and4_1
*CAP
1 *1998:A 0
2 *1964:A 6.74322e-05
3 *1930:A 0.000526558
4 *1896:A 0.000501846
5 *1847:B 0
6 *2032:A 0
7 *1844:X 3.76593e-05
8 *320:107 0.00015802
9 *320:92 0.00074374
10 *320:88 0.00201338
11 *320:73 0.00354427
12 *320:62 0.00451067
13 *320:58 0.00313775
14 *320:45 0.000611183
15 *320:37 0.00161219
16 *320:33 0.00330703
17 *320:22 0.00138923
18 *320:8 0.00438446
19 *1896:A *323:58 0
20 *1896:A *331:50 0.000208035
21 *1930:A *1931:A 0
22 *1930:A *321:73 0
23 *320:22 *326:10 0
24 *320:33 *328:25 0.00717308
25 *320:45 *345:8 0
26 *320:58 *331:27 0
27 *320:62 *327:45 0
28 *320:62 *331:27 7.52158e-05
29 *320:92 *321:83 0
30 *320:92 *341:124 0
31 *320:107 *321:98 0.000234224
32 *320:107 *344:115 0.00012816
33 output_no[105] *320:107 8.00842e-05
34 output_o[37] *320:22 0
35 *1785:A *320:22 0.000466056
36 *1786:B *320:22 0
37 *1787:B *320:22 0.000241052
38 *1826:C *320:22 0
39 *1844:C *320:22 0
40 *1844:D *320:22 0.000130403
41 *1844:D *320:33 0.000345666
42 *1845:D *320:33 0.000812524
43 *7:48 *320:22 8.00842e-05
44 *7:60 *320:22 0
45 *8:53 *320:62 0.000181608
46 *10:17 *320:92 0
47 *127:10 *320:22 0.000112198
48 *155:18 *320:88 0.00279843
49 *158:14 *320:107 0.000446352
50 *162:8 *320:92 0
51 *271:14 *320:45 7.81195e-05
52 *286:37 *320:58 0.00012816
53 *286:37 *320:62 0
54 *296:32 *320:22 0
55 *306:114 *320:88 0.000341949
56 *306:125 *320:88 0.00381474
57 *307:81 *320:62 0.00137047
58 *307:81 *320:73 0.00450811
59 *307:106 *320:73 0.00411228
60 *307:106 *320:88 0.00349366
61 *308:71 *320:88 0.000662215
62 *309:46 *320:58 0.00147546
63 *310:41 *320:33 0
64 *312:6 *320:22 0
65 *314:75 *320:62 0.00328159
66 *314:119 *320:88 0
67 *315:38 *320:33 0
68 *318:48 *320:62 0.00124972
69 *318:48 *320:73 0.00747757
70 *318:59 *320:73 0.00114199
71 *318:59 *320:88 0.00352468
72 *319:110 *1896:A 0
*RES
1 *1844:X *320:8 40.3193 
2 *320:8 *320:22 33.6578 
3 *320:22 *2032:A 20 
4 *320:8 *320:33 43.7853 
5 *320:33 *320:37 24.2127 
6 *320:37 *320:45 44.7548 
7 *320:45 *1847:B 20 
8 *320:37 *320:58 47.5293 
9 *320:58 *320:62 49.2726 
10 *320:62 *1896:A 44.6453 
11 *320:62 *320:73 39.9022 
12 *320:73 *1930:A 41.5037 
13 *320:73 *320:88 36.1221 
14 *320:88 *320:92 24.429 
15 *320:92 *1964:A 20.5356 
16 *320:92 *320:107 42.6162 
17 *320:107 *1998:A 20 
*END

*D_NET *321 0.0698426
*CONN
*I *1846:B I *D sg13g2_nor2_1
*I *1997:A I *D sg13g2_nor2_1
*I *1963:A I *D sg13g2_nor2_1
*I *1929:A I *D sg13g2_nor2_1
*I *1895:A I *D sg13g2_nor2_1
*I *2031:A I *D sg13g2_nor2_1
*I *1845:Y O *D sg13g2_nand4_1
*CAP
1 *1846:B 0
2 *1997:A 0
3 *1963:A 2.96211e-05
4 *1929:A 0.000120583
5 *1895:A 0.000152361
6 *2031:A 0.000462931
7 *1845:Y 0.00083752
8 *321:98 0.000163698
9 *321:83 0.000608043
10 *321:75 0.00245132
11 *321:73 0.00239118
12 *321:62 0.000475171
13 *321:60 0.00300482
14 *321:45 0.00367129
15 *321:37 0.00280466
16 *321:35 0.00229055
17 *321:33 0.000178077
18 *321:27 0.000346529
19 *321:23 0.00425512
20 *321:10 0.00538712
21 *1963:A *331:100 4.77425e-05
22 *321:10 *327:8 7.92265e-05
23 *321:23 *346:8 0
24 *321:23 *346:18 0
25 *321:37 *326:43 0
26 *321:37 *335:24 0.00306761
27 *321:37 *335:47 0
28 *321:45 *331:50 0.000989373
29 *321:60 *322:60 0.00268619
30 *321:60 *324:48 0.00051864
31 *321:60 *325:56 0.00342765
32 *321:60 *331:50 0.000182121
33 *321:60 *332:54 0.00246188
34 *321:60 *334:48 0
35 *321:60 *338:123 0
36 *321:83 *331:100 3.23417e-05
37 *321:98 *342:101 0.000128663
38 *321:98 *342:110 0.000340789
39 *321:98 *344:100 4.77425e-05
40 output_no[39] *2031:A 0.000208035
41 output_o[56] *321:33 0.000175693
42 *1755:A *321:10 0
43 *1755:B *321:10 0.000339008
44 *1796:A *321:10 0.000144657
45 *1857:A *321:10 0.000532405
46 *1930:A *321:73 0
47 *1979:A *321:83 0.000175693
48 *4:134 *321:10 0
49 *9:11 *321:75 0.00760392
50 *10:17 *321:83 6.46834e-05
51 *158:14 *321:98 0
52 *162:8 *321:98 1.54008e-05
53 *208:14 *321:23 0.000335735
54 *255:16 *2031:A 0.000175725
55 *298:65 *321:10 0
56 *298:74 *321:10 0
57 *302:8 *321:10 0
58 *302:18 *2031:A 0
59 *302:36 *2031:A 0
60 *302:36 *321:23 0
61 *306:48 *321:23 0
62 *308:29 *321:23 0
63 *308:79 *321:75 0
64 *308:90 *321:75 0
65 *309:68 *321:75 0.00434632
66 *312:14 *2031:A 0.000827101
67 *312:14 *321:23 0.000166035
68 *312:20 *321:23 0.000929126
69 *312:31 *321:23 0.00012816
70 *312:46 *321:23 0.00222518
71 *315:50 *321:37 0
72 *315:69 *321:45 0
73 *316:47 *321:45 0.000981828
74 *316:47 *321:60 0.0013312
75 *316:59 *321:60 0
76 *317:84 *321:45 0
77 *319:70 *321:37 0.00489225
78 *319:120 *321:73 0
79 *319:142 *321:83 0.00036971
80 *320:92 *321:83 0
81 *320:107 *321:98 0.000234224
*RES
1 *1845:Y *321:10 48.7035 
2 *321:10 *2031:A 45.2118 
3 *321:10 *321:23 38.419 
4 *321:23 *321:27 21.4008 
5 *321:27 *321:33 41.6171 
6 *321:33 *321:35 20 
7 *321:35 *321:37 31.4974 
8 *321:37 *321:45 47.2512 
9 *321:45 *1895:A 41.1845 
10 *321:45 *321:60 40.3245 
11 *321:60 *321:62 20 
12 *321:62 *1929:A 20.9682 
13 *321:62 *321:73 22.9149 
14 *321:73 *321:75 35.2054 
15 *321:75 *321:83 24.2642 
16 *321:83 *1963:A 20.3193 
17 *321:83 *321:98 42.3999 
18 *321:98 *1997:A 20 
19 *321:27 *1846:B 20 
*END

*D_NET *322 0.0575621
*CONN
*I *2034:A I *D sg13g2_nand2_1
*I *1966:A I *D sg13g2_nand2_1
*I *2000:A I *D sg13g2_nand2_1
*I *1932:A I *D sg13g2_nand2_1
*I *1898:A I *D sg13g2_nand2_1
*I *1851:B I *D sg13g2_nand2_1
*I *1848:X O *D sg13g2_and3_1
*CAP
1 *2034:A 0.000156459
2 *1966:A 0
3 *2000:A 0
4 *1932:A 0.000105268
5 *1898:A 0.000221252
6 *1851:B 0.000204333
7 *1848:X 0.000813047
8 *322:83 4.46173e-05
9 *322:77 0.000202836
10 *322:71 0.00300907
11 *322:60 0.00374474
12 *322:54 0.00306196
13 *322:35 0.00565429
14 *322:20 0.00531786
15 *322:14 0.00211029
16 *322:12 0.000813047
17 *1851:B *325:35 0.000272718
18 *322:12 *2034:B 0
19 *322:12 *324:18 0.000181694
20 *322:12 *325:12 0.000691509
21 *322:12 *345:34 0.000128039
22 *322:20 *345:26 7.9225e-05
23 *322:35 *325:37 0.000971704
24 *322:35 *333:49 0
25 *322:35 *337:47 0
26 *322:54 *325:37 0
27 *322:54 *325:52 0.003524
28 *322:54 *328:68 0.000109244
29 *322:54 *330:69 0
30 *322:54 *333:49 0
31 *322:54 *335:55 0
32 *322:54 *335:63 0.00161857
33 *322:60 *324:48 0.00340172
34 *322:60 *325:56 0
35 *322:71 *324:48 0
36 *322:71 *324:63 0.00324893
37 *322:71 *325:56 0.000288502
38 *322:71 *331:83 0
39 *322:71 *331:100 0
40 *322:71 *342:35 0.000554077
41 *322:71 *344:40 0.000930444
42 *322:71 *344:53 0.00103251
43 *322:83 *343:8 0.000234727
44 output_no[105] *322:77 0.00011101
45 output_no[48] *322:20 0
46 output_no[49] *2034:A 0.000146015
47 output_no[57] *1851:B 0.00030506
48 output_no[73] *1898:A 0.000272835
49 output_o[73] *1898:A 0
50 *1851:A *1851:B 0
51 *1854:A *1851:B 0
52 *153:10 *322:83 0.000234727
53 *158:14 *322:71 0.0016719
54 *162:8 *322:77 0.000208035
55 *210:10 *322:20 0.000288087
56 *226:12 *322:35 0.000554906
57 *304:52 *322:12 7.98942e-05
58 *304:65 *322:12 0.000337167
59 *312:73 *322:54 0
60 *316:24 *322:20 0.00290085
61 *318:22 *322:20 0
62 *318:33 *322:20 0
63 *318:33 *322:35 0.00503872
64 *321:60 *322:60 0.00268619
*RES
1 *1848:X *322:12 48.5593 
2 *322:12 *322:14 20 
3 *322:14 *322:20 44.4934 
4 *322:20 *1851:B 42.266 
5 *322:20 *322:35 36.1221 
6 *322:35 *1898:A 42.0497 
7 *322:35 *322:54 48.3456 
8 *322:54 *322:60 35.9959 
9 *322:60 *1932:A 40.9682 
10 *322:60 *322:71 34.9582 
11 *322:71 *322:77 21.751 
12 *322:77 *322:83 41.0918 
13 *322:83 *2000:A 20 
14 *322:77 *1966:A 20 
15 *322:14 *2034:A 21.7355 
*END

*D_NET *323 0.0521723
*CONN
*I *2033:A I *D sg13g2_nor2_1
*I *1999:A I *D sg13g2_nor2_1
*I *1965:A I *D sg13g2_nor2_1
*I *1931:A I *D sg13g2_nor2_1
*I *1897:A I *D sg13g2_nor2_1
*I *1850:B I *D sg13g2_nor2_1
*I *1849:Y O *D sg13g2_nand3_1
*CAP
1 *2033:A 0
2 *1999:A 4.72978e-05
3 *1965:A 0
4 *1931:A 0.000825006
5 *1897:A 0
6 *1850:B 0
7 *1849:Y 0.000452476
8 *323:75 0.000808534
9 *323:71 0.00321116
10 *323:60 0.00582516
11 *323:58 0.00335617
12 *323:49 0.000844183
13 *323:45 3.82423e-05
14 *323:41 0.00223386
15 *323:32 4.49146e-05
16 *323:26 0.00329733
17 *323:22 0.0010596
18 *323:10 0.000493516
19 *323:10 *2033:B 7.50789e-05
20 *323:22 *325:29 2.58791e-05
21 *323:26 *326:31 0.00432028
22 *323:26 *335:24 0
23 *323:41 *326:31 0.000557415
24 *323:41 *335:47 0
25 *323:60 *328:48 0.00268614
26 *323:75 *1998:B 0.000240377
27 *323:75 *2000:B 4.77425e-05
28 *323:75 *341:138 0.000272718
29 *1820:A *323:10 0
30 *1896:A *323:58 0
31 *1930:A *1931:A 0
32 *9:9 *323:75 0
33 *210:10 *323:10 0
34 *266:10 *323:10 2.04061e-05
35 *266:10 *323:22 2.95294e-05
36 *304:52 *323:22 2.58791e-05
37 *306:106 *323:60 0.00409463
38 *306:106 *323:71 0.0033932
39 *309:12 *323:10 0.000208035
40 *313:57 *323:41 0
41 *313:63 *323:41 0.00416145
42 *313:128 *323:71 0.00306344
43 *315:50 *323:26 0.00168909
44 *315:50 *323:41 0.00472355
45 *315:71 *323:41 0
46 *317:74 *323:41 0
47 *319:116 *323:60 0
48 *319:138 *323:71 0
*RES
1 *1849:Y *323:10 24.017 
2 *323:10 *323:22 40.6643 
3 *323:22 *323:26 39.879 
4 *323:26 *323:32 40.3193 
5 *323:32 *1850:B 40 
6 *323:26 *323:41 35.6998 
7 *323:41 *323:45 40 
8 *323:45 *323:49 20.3193 
9 *323:49 *1897:A 20 
10 *323:49 *323:58 27.2409 
11 *323:58 *323:60 40.1494 
12 *323:60 *1931:A 47.2409 
13 *323:60 *323:71 37.9246 
14 *323:71 *323:75 27.2409 
15 *323:75 *1965:A 20 
16 *323:75 *1999:A 20.5974 
17 *323:10 *2033:A 20 
*END

*D_NET *324 0.0576103
*CONN
*I *2036:A I *D sg13g2_nand2_1
*I *1968:A I *D sg13g2_nand2_1
*I *2002:A I *D sg13g2_nand2_1
*I *1934:A I *D sg13g2_nand2_1
*I *1900:A I *D sg13g2_nand2_1
*I *1855:B I *D sg13g2_nand2_1
*I *1852:X O *D sg13g2_and3_1
*CAP
1 *2036:A 0
2 *1968:A 0
3 *2002:A 0
4 *1934:A 0.000175768
5 *1900:A 0
6 *1855:B 0.00013404
7 *1852:X 0.000740906
8 *324:73 9.88958e-05
9 *324:67 0.000219581
10 *324:63 0.00360302
11 *324:48 0.00719129
12 *324:46 0.00371121
13 *324:37 0.00025612
14 *324:33 0.00301873
15 *324:18 0.00512476
16 *324:12 0.00279098
17 *1855:B *1854:B 0
18 *324:12 *334:8 4.77425e-05
19 *324:12 *335:10 0
20 *324:18 *2044:A 0.000607697
21 *324:18 *326:27 0
22 *324:18 *332:35 0.00281878
23 *324:18 *345:20 0.000767865
24 *324:18 *345:26 0.00109126
25 *324:18 *345:34 0
26 *324:33 *332:35 0.000604312
27 *324:33 *333:49 0.0029583
28 *324:33 *335:43 0
29 *324:33 *337:16 0.000427775
30 *324:33 *337:18 0.000449332
31 *324:33 *337:33 0
32 *324:48 *334:48 0.00297853
33 *324:63 *341:138 0.000340704
34 *324:67 *341:138 0.000176252
35 *324:73 *343:34 0.000556238
36 output_no[47] *324:12 0
37 output_no[58] *1855:B 0.000143351
38 output_no[74] *324:37 7.98582e-05
39 output_o[47] *324:12 0
40 output_o[47] *324:18 0
41 *1872:A *324:12 0
42 *1872:B *324:12 4.77425e-05
43 *10:42 *324:48 0
44 *10:42 *324:63 0
45 *35:10 *324:63 0.000234416
46 *153:10 *324:73 0.000555408
47 *154:10 *324:63 0.000579067
48 *154:16 *324:63 0
49 *158:14 *324:63 0
50 *224:8 *324:33 2.20966e-05
51 *225:10 *324:33 0
52 *235:8 *324:33 0.000290236
53 *280:40 *324:12 6.46834e-05
54 *304:14 *324:33 0
55 *304:16 *324:33 0
56 *304:42 *324:18 0
57 *304:52 *324:18 0
58 *307:41 *324:18 0.000234727
59 *311:73 *324:48 0.00125254
60 *315:54 *324:33 0.0013543
61 *316:32 *324:18 0.0024162
62 *316:32 *324:33 0.00148845
63 *316:72 *324:63 0
64 *318:22 *324:18 0
65 *319:84 *324:33 0.000606176
66 *321:60 *324:48 0.00051864
67 *322:12 *324:18 0.000181694
68 *322:60 *324:48 0.00340172
69 *322:71 *324:48 0
70 *322:71 *324:63 0.00324893
*RES
1 *1852:X *324:12 26.8083 
2 *324:12 *324:18 49.2211 
3 *324:18 *1855:B 41.1845 
4 *324:18 *324:33 37.3272 
5 *324:33 *324:37 20.7519 
6 *324:37 *1900:A 20 
7 *324:37 *324:46 21.4008 
8 *324:46 *324:48 39.9022 
9 *324:48 *1934:A 41.4008 
10 *324:48 *324:63 35.6277 
11 *324:63 *324:67 21.1845 
12 *324:67 *324:73 42.575 
13 *324:73 *2002:A 20 
14 *324:67 *1968:A 20 
15 *324:12 *2036:A 20 
*END

*D_NET *325 0.0572002
*CONN
*I *1854:B I *D sg13g2_nor2_1
*I *1933:A I *D sg13g2_nor2_1
*I *2001:A I *D sg13g2_nor2_1
*I *1967:A I *D sg13g2_nor2_1
*I *1899:A I *D sg13g2_nor2_1
*I *2035:A I *D sg13g2_nor2_1
*I *1853:Y O *D sg13g2_nand3_1
*CAP
1 *1854:B 9.76586e-05
2 *1933:A 0
3 *2001:A 0.000219146
4 *1967:A 0.000137456
5 *1899:A 0.000243325
6 *2035:A 0
7 *1853:Y 0.000669366
8 *325:66 0.00303126
9 *325:64 0.00282458
10 *325:60 0.000223473
11 *325:56 0.00134773
12 *325:52 0.00302785
13 *325:37 0.00568228
14 *325:35 0.00391421
15 *325:29 0.00221501
16 *325:12 0.0025578
17 *2001:A *341:162 0
18 *325:12 *2034:B 1.54008e-05
19 *325:56 *331:83 0.000901154
20 *325:66 *332:74 0
21 *325:66 *332:89 0
22 *325:66 *333:55 0.00193357
23 *325:66 *339:118 0.000340791
24 *325:66 *339:129 0.000477113
25 *325:66 *339:140 0.000475961
26 *325:66 *339:151 0.000479364
27 *325:66 *339:166 0.000372382
28 *325:66 *341:31 0.000551791
29 *325:66 *341:59 0.000981121
30 *325:66 *341:70 0.000661178
31 *325:66 *341:96 0.000501044
32 *325:66 *341:107 0.000767035
33 *325:66 *341:162 0.000767865
34 output_no[49] *325:12 0.000175648
35 output_no[57] *325:35 0
36 output_no[73] *1899:A 0
37 output_o[58] *1854:B 1.54008e-05
38 output_o[74] *1899:A 0.000304947
39 *1816:A *325:12 0.000389882
40 *1816:A *325:29 2.16263e-05
41 *1820:A *325:12 0
42 *1851:B *325:35 0.000272718
43 *1854:A *1854:B 0
44 *1855:B *1854:B 0
45 *85:8 *325:29 0.000128247
46 *150:8 *325:12 7.4627e-05
47 *163:10 *2001:A 0.000266405
48 *163:10 *325:66 0.000288173
49 *226:12 *325:37 0.000554993
50 *304:32 *1854:B 0.00015929
51 *304:32 *325:29 0.000181192
52 *304:34 *325:29 0.000397034
53 *304:36 *325:29 0
54 *304:38 *325:29 0
55 *304:40 *325:29 0
56 *304:42 *325:29 0
57 *304:52 *325:12 0
58 *304:52 *325:29 0.000557233
59 *305:26 *1854:B 0.000106064
60 *305:30 *1854:B 7.51285e-05
61 *305:30 *325:29 0.000393822
62 *305:32 *325:29 0.000318607
63 *305:34 *325:29 0.00026766
64 *305:36 *325:29 0.000268884
65 *305:38 *325:29 0.000425029
66 *305:40 *325:29 0.00042325
67 *305:42 *325:29 0.000479363
68 *305:44 *325:29 0.000160341
69 *305:46 *325:29 0.000851418
70 *305:52 *325:29 0.000499225
71 *312:73 *325:52 0
72 *312:99 *325:66 0
73 *315:102 *2001:A 0.00034112
74 *315:102 *325:66 0.00241651
75 *316:59 *325:56 0.00204016
76 *321:60 *325:56 0.00342765
77 *322:12 *325:12 0.000691509
78 *322:35 *325:37 0.000971704
79 *322:54 *325:37 0
80 *322:54 *325:52 0.003524
81 *322:60 *325:56 0
82 *322:71 *325:56 0.000288502
83 *323:22 *325:29 2.58791e-05
*RES
1 *1853:Y *325:12 47.3233 
2 *325:12 *2035:A 40 
3 *325:12 *325:29 22.9484 
4 *325:29 *325:35 42.0497 
5 *325:35 *325:37 36.9358 
6 *325:37 *1899:A 42.4823 
7 *325:37 *325:52 42.763 
8 *325:52 *325:56 40.3734 
9 *325:56 *325:60 20.7519 
10 *325:60 *325:64 21.1845 
11 *325:64 *325:66 37.6774 
12 *325:66 *1967:A 41.1845 
13 *325:66 *2001:A 42.7707 
14 *325:60 *1933:A 20 
15 *325:29 *1854:B 41.3802 
*END

*D_NET *326 0.0821571
*CONN
*I *1859:B I *D sg13g2_nand2_1
*I *2004:A I *D sg13g2_nand2_1
*I *1970:A I *D sg13g2_nand2_1
*I *1936:A I *D sg13g2_nand2_1
*I *1902:A I *D sg13g2_nand2_1
*I *2038:A I *D sg13g2_nand2_1
*I *1856:X O *D sg13g2_and3_1
*CAP
1 *1859:B 0
2 *2004:A 0.00020428
3 *1970:A 0
4 *1936:A 0
5 *1902:A 0
6 *2038:A 7.43425e-05
7 *1856:X 0.000784142
8 *326:109 0.000165154
9 *326:87 0.000330521
10 *326:79 0.00205235
11 *326:77 0.00197331
12 *326:68 5.59251e-05
13 *326:62 0.000222201
14 *326:58 0.00313156
15 *326:49 0.000143168
16 *326:43 0.00677865
17 *326:37 0.00386513
18 *326:33 0.000407297
19 *326:31 0.00152164
20 *326:27 0.00365168
21 *326:12 0.0049323
22 *326:10 0.00777215
23 *2004:A *2005:A 0.000497418
24 *2004:A *331:108 0.000279663
25 *2004:A *341:189 0.000178206
26 *2004:A *341:202 0.000318279
27 *2004:A *342:141 0.00023464
28 *2004:A *342:156 6.62898e-05
29 *326:12 *345:54 0
30 *326:12 *345:74 0.000422034
31 *326:12 *345:80 0.00120112
32 *326:12 *346:70 0.00183928
33 *326:27 *345:34 0
34 *326:27 *345:36 0
35 *326:27 *345:38 0
36 *326:27 *345:46 0
37 *326:43 *335:24 0.00205254
38 *326:43 *335:47 0
39 *326:58 *327:67 0
40 *326:58 *327:82 0
41 *326:58 *329:54 0
42 *326:62 *329:58 0
43 *326:79 *327:82 0.00688275
44 *326:79 *328:72 0
45 *326:79 *328:91 0
46 *326:79 *329:54 0.000289485
47 *326:79 *329:62 0
48 *326:79 *333:75 0.00496578
49 *326:87 *331:108 0.000393453
50 *326:87 *342:130 7.33256e-05
51 *326:87 *342:141 0.000318279
52 output_no[11] *2038:A 7.97453e-05
53 output_no[16] *326:12 0
54 output_no[91] *326:68 4.77425e-05
55 output_o[38] *326:10 0.000627513
56 *1752:A *326:12 0
57 *1786:B *326:10 0
58 *1788:A *326:10 4.77425e-05
59 *1788:B *326:10 0
60 *1789:B *326:10 0
61 *1844:C *326:10 0
62 *2047:A *326:12 0.00013021
63 *43:14 *326:31 0
64 *50:16 *326:12 0
65 *63:12 *326:12 0
66 *138:12 *326:27 0
67 *138:14 *326:31 0
68 *172:12 *326:31 0
69 *255:16 *326:10 0
70 *270:34 *326:12 0
71 *273:28 *326:12 0.00393428
72 *273:30 *326:12 0.000395177
73 *273:32 *326:12 0.00012816
74 *273:34 *326:12 0.000450066
75 *273:40 *326:12 0.000287256
76 *274:46 *326:12 0
77 *274:50 *326:12 0
78 *274:52 *326:12 0
79 *274:54 *326:12 0
80 *274:56 *326:12 0
81 *274:58 *326:12 0
82 *274:60 *326:12 0
83 *274:62 *326:12 0
84 *274:64 *326:12 0
85 *274:66 *326:12 0
86 *274:68 *326:12 0
87 *274:74 *326:12 0.00156671
88 *274:76 *326:12 0.000320048
89 *274:78 *326:12 0.000161687
90 *274:80 *326:12 0.000212014
91 *274:82 *326:12 0.000215299
92 *274:84 *326:12 0.000319897
93 *287:46 *326:27 0.000928476
94 *287:52 *326:12 0.000128355
95 *287:52 *326:27 0.00277422
96 *287:54 *326:12 0.000181192
97 *287:60 *326:12 0.000341216
98 *288:43 *326:27 0
99 *288:57 *326:27 0
100 *288:59 *326:27 0
101 *288:61 *326:27 0
102 *288:63 *326:27 0
103 *288:65 *326:27 0
104 *288:73 *326:12 0.00167928
105 *288:73 *326:27 7.51285e-05
106 *288:77 *326:12 0
107 *288:79 *326:12 0
108 *288:81 *326:12 0
109 *293:22 *326:12 0.000235153
110 *293:24 *326:12 0
111 *296:32 *326:10 0
112 *299:14 *326:12 0
113 *305:24 *326:109 0.00023547
114 *305:26 *326:109 0.000230926
115 *307:16 *326:12 0
116 *307:41 *326:27 0.000554418
117 *310:70 *326:31 0
118 *312:46 *326:109 0
119 *313:26 *326:12 0
120 *313:57 *326:31 0.00270634
121 *315:71 *326:43 0
122 *315:71 *326:58 0
123 *318:22 *326:27 0
124 *319:64 *326:37 0.000207307
125 *320:22 *326:10 0
126 *321:37 *326:43 0
127 *323:26 *326:31 0.00432028
128 *323:41 *326:31 0.000557415
129 *324:18 *326:27 0
*RES
1 *1856:X *326:10 47.9928 
2 *326:10 *326:12 63.6334 
3 *326:12 *2038:A 40.7519 
4 *326:10 *326:27 43.3501 
5 *326:27 *326:31 46.059 
6 *326:31 *326:33 20 
7 *326:33 *326:37 22.0497 
8 *326:37 *326:43 43.9707 
9 *326:43 *326:49 41.4008 
10 *326:49 *1902:A 40 
11 *326:43 *326:58 35.6998 
12 *326:58 *326:62 20.9682 
13 *326:62 *326:68 40.5356 
14 *326:68 *1936:A 20 
15 *326:62 *326:77 20.3193 
16 *326:77 *326:79 35.2054 
17 *326:79 *326:87 42.1527 
18 *326:87 *1970:A 40 
19 *326:87 *2004:A 44.0582 
20 *326:33 *326:109 42.0806 
21 *326:109 *1859:B 20 
*END

*D_NET *327 0.0789875
*CONN
*I *1858:B I *D sg13g2_nor2_1
*I *1901:A I *D sg13g2_nor2_1
*I *2003:A I *D sg13g2_nor2_1
*I *1969:A I *D sg13g2_nor2_1
*I *1935:A I *D sg13g2_nor2_1
*I *2037:A I *D sg13g2_nor2_1
*I *1857:Y O *D sg13g2_nand3_1
*CAP
1 *1858:B 0.000345097
2 *1901:A 0
3 *2003:A 0
4 *1969:A 6.17099e-05
5 *1935:A 5.82395e-05
6 *2037:A 0
7 *1857:Y 5.87606e-05
8 *327:109 0.000617735
9 *327:92 0.000679445
10 *327:90 0.000295844
11 *327:82 0.00231899
12 *327:71 5.82395e-05
13 *327:67 0.00495462
14 *327:65 0.00299541
15 *327:59 0.00101451
16 *327:49 0.00144032
17 *327:45 0.00348978
18 *327:43 0.00317536
19 *327:37 0.00328605
20 *327:24 0.000176039
21 *327:18 0.00578099
22 *327:16 0.00631925
23 *327:8 0.00353869
24 *1858:B *1862:B 0
25 *1858:B *329:25 0.000235055
26 *327:37 *329:23 0.00183676
27 *327:37 *329:25 0.00433887
28 *327:37 *330:31 0
29 *327:45 *331:27 0
30 *327:59 *330:69 0.000658759
31 *327:59 *332:64 0.000393823
32 *327:59 *333:49 0.00145752
33 *327:59 *333:55 7.51285e-05
34 *327:59 *335:55 0
35 *327:67 *329:54 0
36 *327:82 *329:54 0
37 *327:82 *329:62 0
38 *327:90 *342:130 0.00023547
39 *327:90 *344:115 0.000392763
40 *327:109 *342:156 0
41 output_no[106] *327:109 0
42 *1739:A_N *327:43 4.77425e-05
43 *8:36 *327:45 0.000982896
44 *8:53 *327:45 0.000181608
45 *9:13 *327:45 0
46 *10:75 *1858:B 0.000213286
47 *10:75 *327:37 0.000287758
48 *10:79 *327:37 0.00023464
49 *22:36 *327:24 0
50 *35:10 *327:109 0
51 *158:14 *327:90 0.0007122
52 *158:14 *327:109 0.00115524
53 *276:10 *327:16 0
54 *276:10 *327:37 0
55 *285:12 *327:45 0.000767034
56 *286:10 *327:45 0
57 *305:18 *1858:B 0
58 *307:29 *327:18 0
59 *309:57 *327:45 0.00552061
60 *317:18 *327:18 0
61 *318:48 *327:45 0.00338593
62 *319:34 *327:16 0.000501592
63 *319:34 *327:37 0.00774574
64 *320:62 *327:45 0
65 *321:10 *327:8 7.92265e-05
66 *326:58 *327:67 0
67 *326:58 *327:82 0
68 *326:79 *327:82 0.00688275
*RES
1 *1857:Y *327:8 40.5356 
2 *327:8 *327:16 46.7568 
3 *327:16 *327:18 67.5886 
4 *327:18 *327:24 41.4008 
5 *327:24 *2037:A 40 
6 *327:8 *327:37 44.2797 
7 *327:37 *327:43 41.216 
8 *327:43 *327:45 41.6326 
9 *327:45 *327:49 24.2127 
10 *327:49 *327:59 31.5978 
11 *327:59 *327:65 40.5356 
12 *327:65 *327:67 25.8118 
13 *327:67 *327:71 40 
14 *327:71 *1935:A 40.5356 
15 *327:67 *327:82 32.7334 
16 *327:82 *327:90 44.2848 
17 *327:90 *327:92 20 
18 *327:92 *1969:A 20.5356 
19 *327:92 *327:109 46.7362 
20 *327:109 *2003:A 20 
21 *327:49 *1901:A 20 
22 *327:37 *1858:B 43.9187 
*END

*D_NET *328 0.066992
*CONN
*I *1904:A I *D sg13g2_nand2_1
*I *2006:A I *D sg13g2_nand2_1
*I *1972:A I *D sg13g2_nand2_1
*I *1938:A I *D sg13g2_nand2_1
*I *1863:B I *D sg13g2_nand2_1
*I *2040:A I *D sg13g2_nand2_1
*I *1860:X O *D sg13g2_and4_1
*CAP
1 *1904:A 0
2 *2006:A 0
3 *1972:A 0.000106866
4 *1938:A 3.51522e-05
5 *1863:B 0.00103915
6 *2040:A 7.1456e-05
7 *1860:X 2.88613e-05
8 *328:118 0.000394119
9 *328:112 0.00139268
10 *328:97 0.000268574
11 *328:91 0.00338373
12 *328:76 3.51522e-05
13 *328:72 0.00314945
14 *328:68 0.00136349
15 *328:60 0.000721417
16 *328:52 0.00113112
17 *328:48 0.00366083
18 *328:31 0.00404055
19 *328:25 0.00351836
20 *328:23 0.00333059
21 *328:14 0.00110759
22 *328:6 0.00106499
23 *1863:B *1862:B 0
24 *1863:B *1866:B 0
25 *1863:B *1867:B 0
26 *1863:B *331:27 0
27 *328:14 *346:46 0
28 *328:60 *1909:B 0.00028056
29 *328:60 *331:58 0.000287758
30 *328:60 *331:83 0.000869698
31 *328:60 *332:58 1.54008e-05
32 *328:60 *332:64 8.00842e-05
33 *328:60 *338:145 0.000393736
34 *328:60 *338:156 0.000474717
35 *328:68 *330:69 0.00172869
36 *328:68 *331:83 0.00171825
37 *328:72 *329:54 0.00468366
38 *328:91 *333:75 0.00562347
39 *328:97 *329:68 0.000113331
40 *328:112 *333:75 8.03068e-05
41 output_no[108] *1972:A 0.000111568
42 output_no[43] *2040:A 0.000112426
43 output_no[43] *328:14 0
44 output_no[60] *1863:B 0
45 *1745:A *328:14 4.77425e-05
46 *1746:A *328:14 0.000208666
47 *1794:A *328:14 0
48 *1801:B *2040:A 0
49 *1860:B *328:14 0
50 *6:9 *328:25 0
51 *6:11 *328:25 0
52 *6:19 *328:25 0
53 *7:9 *328:25 0
54 *7:9 *328:48 0
55 *7:38 *328:25 0
56 *8:53 *1863:B 8.00842e-05
57 *10:64 *1863:B 0
58 *36:8 *328:118 0
59 *158:18 *328:118 0.000340837
60 *159:8 *328:118 0
61 *163:20 *328:112 0
62 *233:12 *328:14 0
63 *271:46 *328:48 0
64 *275:8 *328:14 0
65 *276:8 *328:14 0
66 *300:10 *328:14 0
67 *304:28 *1863:B 0
68 *311:40 *328:48 0
69 *312:20 *328:14 0.000234332
70 *314:69 *1863:B 0.000208035
71 *315:71 *328:72 0.00158352
72 *315:86 *328:72 0.00331093
73 *315:86 *328:91 0.00459155
74 *317:133 *328:91 0
75 *317:133 *328:112 0
76 *320:33 *328:25 0.00717308
77 *322:54 *328:68 0.000109244
78 *323:60 *328:48 0.00268614
79 *326:79 *328:72 0
80 *326:79 *328:91 0
*RES
1 *1860:X *328:6 20.3193 
2 *328:6 *328:14 49.6305 
3 *328:14 *2040:A 20.7519 
4 *328:6 *328:23 20 
5 *328:23 *328:25 42.6214 
6 *328:25 *328:31 41.8334 
7 *328:31 *1863:B 49.991 
8 *328:31 *328:48 39.1606 
9 *328:48 *328:52 27.4572 
10 *328:52 *328:60 45.8298 
11 *328:60 *328:68 48.7653 
12 *328:68 *328:72 42.5982 
13 *328:72 *328:76 40 
14 *328:76 *1938:A 40.3193 
15 *328:72 *328:91 37.1109 
16 *328:91 *328:97 41.4008 
17 *328:97 *1972:A 40.9682 
18 *328:91 *328:112 31.0828 
19 *328:112 *328:118 43.5638 
20 *328:118 *2006:A 20 
21 *328:52 *1904:A 20 
*END

*D_NET *329 0.0631029
*CONN
*I *1903:A I *D sg13g2_nor2_1
*I *1937:A I *D sg13g2_nor2_1
*I *2005:A I *D sg13g2_nor2_1
*I *1971:A I *D sg13g2_nor2_1
*I *1862:B I *D sg13g2_nor2_1
*I *2039:A I *D sg13g2_nor2_1
*I *1861:Y O *D sg13g2_nand4_1
*CAP
1 *1903:A 0
2 *1937:A 0
3 *2005:A 0.000579144
4 *1971:A 6.96918e-05
5 *1862:B 0.000356866
6 *2039:A 0.000157942
7 *1861:Y 0.000528733
8 *329:107 0
9 *329:98 0.000224464
10 *329:68 0.000833296
11 *329:62 0.00326044
12 *329:60 0.00307598
13 *329:58 0.000459963
14 *329:54 0.00366704
15 *329:52 0.00343154
16 *329:50 0.00024302
17 *329:46 0.00186769
18 *329:44 0.00201741
19 *329:25 0.00267323
20 *329:23 0.00341525
21 *329:10 0.0021783
22 *1862:B *331:27 0
23 *1971:A *341:189 0
24 *2005:A *1978:B 0.000554078
25 *2005:A *330:89 0
26 *2005:A *331:108 0.00039059
27 *2005:A *332:101 0.000709581
28 *2005:A *341:202 0
29 *2005:A *343:61 7.51285e-05
30 *2005:A *343:65 0.000125398
31 *2039:A *2039:B 0
32 *329:23 *2046:A 0.0002849
33 *329:23 *334:29 0.00197518
34 *329:25 *334:29 2.24836e-05
35 *329:44 *330:31 0
36 *329:44 *334:29 0.0006095
37 *329:44 *342:12 2.19989e-05
38 *329:46 *330:48 0.00676587
39 *329:46 *333:37 0
40 output_no[108] *1971:A 0
41 output_no[91] *329:98 0
42 output_o[92] *329:98 0
43 *1794:A *329:10 0
44 *1794:B *329:10 4.27372e-05
45 *1797:A *329:10 4.77425e-05
46 *1806:A_N *329:23 0.000214719
47 *1858:B *1862:B 0
48 *1858:B *329:25 0.000235055
49 *1861:A *329:10 1.54008e-05
50 *1863:B *1862:B 0
51 *2004:A *2005:A 0.000497418
52 *9:29 *329:25 0.000720992
53 *10:75 *329:25 0
54 *10:75 *329:44 0
55 *151:8 *2005:A 0.000287758
56 *163:20 *329:62 0
57 *269:36 *329:10 0
58 *276:10 *329:23 0.000717517
59 *276:36 *329:23 0.000213056
60 *277:8 *329:10 8.00842e-05
61 *277:49 *329:23 0
62 *280:27 *329:23 0
63 *288:261 *2039:A 1.54282e-05
64 *306:79 *329:46 0.00655391
65 *308:39 *329:46 0
66 *310:70 *329:46 0.00162431
67 *310:154 *329:62 0
68 *313:63 *329:46 0
69 *315:71 *329:54 0
70 *326:58 *329:54 0
71 *326:62 *329:58 0
72 *326:79 *329:54 0.000289485
73 *326:79 *329:62 0
74 *327:37 *329:23 0.00183676
75 *327:37 *329:25 0.00433887
76 *327:67 *329:54 0
77 *327:82 *329:54 0
78 *327:82 *329:62 0
79 *328:72 *329:54 0.00468366
80 *328:97 *329:68 0.000113331
*RES
1 *1861:Y *329:10 24.6659 
2 *329:10 *2039:A 21.1845 
3 *329:10 *329:23 39.9511 
4 *329:23 *329:25 23.0926 
5 *329:25 *1862:B 43.2342 
6 *329:25 *329:44 44.223 
7 *329:44 *329:46 38.1718 
8 *329:46 *329:50 21.8334 
9 *329:50 *329:52 20 
10 *329:52 *329:54 35.6998 
11 *329:54 *329:58 21.8334 
12 *329:58 *329:60 20 
13 *329:60 *329:62 37.4302 
14 *329:62 *329:68 41.6171 
15 *329:68 *1971:A 40.6695 
16 *329:68 *2005:A 48.6829 
17 *329:58 *329:98 41.8334 
18 *329:98 *1937:A 20 
19 *329:50 *329:107 40 
20 *329:107 *1903:A 20 
*END

*D_NET *330 0.0670061
*CONN
*I *1940:A I *D sg13g2_nand2_1
*I *2008:A I *D sg13g2_nand2_1
*I *1974:A I *D sg13g2_nand2_1
*I *1906:A I *D sg13g2_nand2_1
*I *1867:B I *D sg13g2_nand2_1
*I *2042:A I *D sg13g2_nand2_1
*I *1864:X O *D sg13g2_and3_1
*CAP
1 *1940:A 3.51052e-05
2 *2008:A 0
3 *1974:A 0.000129432
4 *1906:A 8.11435e-05
5 *1867:B 0.000195901
6 *2042:A 0.000107213
7 *1864:X 7.16781e-05
8 *330:112 0.000915941
9 *330:89 0.0037193
10 *330:73 0.0042653
11 *330:69 0.00279131
12 *330:54 0.00159873
13 *330:48 0.00272016
14 *330:46 0.00243761
15 *330:44 0.000676944
16 *330:31 0.00290787
17 *330:14 0.002508
18 *330:8 0.000437443
19 *1867:B *1866:B 0
20 *1867:B *1870:B 0
21 *1867:B *333:22 0
22 *1974:A *2003:B 0
23 *1974:A *343:47 1.54008e-05
24 *1974:A *343:61 8.00842e-05
25 *2042:A *2041:A 0
26 *330:31 *333:18 0
27 *330:44 *331:50 0
28 *330:44 *333:18 0.000341949
29 *330:44 *334:46 0.000399086
30 *330:48 *333:37 0
31 *330:69 *331:83 0
32 *330:69 *332:64 0
33 *330:69 *332:72 0
34 *330:69 *333:49 0.000289306
35 *330:69 *337:156 0.000126552
36 *330:69 *337:171 0.000373814
37 *330:69 *339:53 7.33225e-05
38 *330:73 *331:83 2.14736e-05
39 *330:73 *332:74 0
40 *330:73 *339:53 0.000654809
41 *330:73 *339:64 0.000447547
42 *330:73 *339:75 0.000501045
43 *330:73 *339:90 0.000128576
44 *330:73 *340:50 0.000235228
45 *330:73 *340:59 0.000530507
46 *330:73 *340:68 0.000480215
47 *330:73 *340:77 0.000585842
48 *330:73 *340:86 0.000319852
49 *330:73 *340:95 0.000479778
50 *330:73 *340:104 0.000478949
51 *330:73 *340:113 0.000478949
52 *330:73 *340:122 0.000472559
53 *330:73 *340:131 0.000479778
54 *330:73 *340:140 0.000106392
55 *330:89 *331:108 0.000485895
56 *330:89 *332:74 0.000606568
57 *330:89 *332:89 0.00408161
58 *330:89 *333:67 0.00145861
59 *330:89 *340:140 0
60 *330:89 *341:25 0
61 *330:89 *341:45 0.000290109
62 *330:89 *342:65 0
63 *330:89 *342:74 0
64 *330:89 *342:83 0
65 *330:89 *342:92 0.000235556
66 *330:89 *342:101 0.000106807
67 *330:89 *343:61 2.20966e-05
68 *330:112 *332:101 0.000394891
69 *330:112 *343:61 0.00103268
70 output_no[126] *330:112 0
71 output_no[77] *1906:A 7.98582e-05
72 output_no[93] *1940:A 1.54008e-05
73 output_o[110] *1974:A 7.92265e-05
74 *1863:B *1867:B 0
75 *1946:B *330:31 4.77425e-05
76 *1980:B *330:44 0.000319109
77 *1985:A *330:89 0.000126015
78 *2005:A *330:89 0
79 *9:37 *330:31 0.000447269
80 *10:56 *330:44 0
81 *10:64 *330:31 0
82 *10:64 *330:44 0
83 *10:75 *330:31 0.00133078
84 *10:79 *330:31 0.000234726
85 *39:12 *330:112 4.77425e-05
86 *143:8 *330:89 0.000235141
87 *146:8 *330:89 0.000288184
88 *166:12 *330:112 0.00146293
89 *252:8 *330:73 0.000235141
90 *286:18 *330:14 8.00842e-05
91 *303:8 *330:44 0.000234726
92 *306:48 *2042:A 0.000393695
93 *306:48 *330:31 0.000898254
94 *306:79 *330:48 0
95 *309:12 *330:8 0.000181279
96 *311:16 *330:14 0.00030506
97 *311:100 *330:89 0.000182216
98 *313:114 *330:89 5.30319e-05
99 *313:126 *330:89 0.00034195
100 *315:102 *330:89 0.00233213
101 *315:108 *330:89 0.000288588
102 *315:108 *330:112 0.00260342
103 *317:74 *330:48 0
104 *317:93 *330:48 0
105 *319:34 *2042:A 0.000393281
106 *319:34 *330:31 0.00220082
107 *322:54 *330:69 0
108 *327:37 *330:31 0
109 *327:59 *330:69 0.000658759
110 *328:68 *330:69 0.00172869
111 *329:44 *330:31 0
112 *329:46 *330:48 0.00676587
*RES
1 *1864:X *330:8 40.8446 
2 *330:8 *330:14 43.3475 
3 *330:14 *2042:A 42.0229 
4 *330:14 *330:31 44.308 
5 *330:31 *1867:B 21.6171 
6 *330:31 *330:44 47.2718 
7 *330:44 *330:46 20 
8 *330:46 *330:48 34.4638 
9 *330:48 *330:54 42.266 
10 *330:54 *1906:A 40.7519 
11 *330:54 *330:69 34.2346 
12 *330:69 *330:73 42.1038 
13 *330:73 *330:89 38.9855 
14 *330:89 *1974:A 41.3184 
15 *330:89 *330:112 36.2122 
16 *330:112 *2008:A 20 
17 *330:73 *1940:A 40.3193 
*END

*D_NET *331 0.0679387
*CONN
*I *2007:A I *D sg13g2_nor2_1
*I *1973:A I *D sg13g2_nor2_1
*I *1939:A I *D sg13g2_nor2_1
*I *1905:A I *D sg13g2_nor2_1
*I *1866:B I *D sg13g2_nor2_1
*I *2041:A I *D sg13g2_nor2_1
*I *1865:Y O *D sg13g2_nand3_1
*CAP
1 *2007:A 0.000116763
2 *1973:A 0
3 *1939:A 3.41765e-05
4 *1905:A 3.52177e-05
5 *1866:B 0.000148417
6 *2041:A 0.000703973
7 *1865:Y 2.67614e-05
8 *331:123 0.00122197
9 *331:112 0.00115689
10 *331:108 0.00109896
11 *331:100 0.00300933
12 *331:83 0.00502714
13 *331:58 0.0042683
14 *331:50 0.00330972
15 *331:31 0.00235579
16 *331:27 0.0019956
17 *331:8 0.00262652
18 *2007:A *2007:B 0
19 *2041:A *2042:B 0.000208035
20 *331:31 *333:18 0
21 *331:50 *1895:B 4.77425e-05
22 *331:50 *334:46 0.000468614
23 *331:50 *334:48 0.00399515
24 *331:58 *337:16 0
25 *331:58 *337:18 0
26 *331:58 *337:33 0.000181694
27 *331:58 *337:134 0.00101957
28 *331:58 *337:145 0.000500629
29 *331:58 *337:156 0.00018211
30 *331:58 *338:10 0.000318694
31 *331:58 *338:12 0.00039332
32 *331:58 *338:112 0.000212456
33 *331:58 *338:123 0.00059929
34 *331:58 *338:134 0
35 *331:58 *338:145 0
36 *331:83 *1909:B 0
37 *331:83 *337:156 0.000315534
38 *331:83 *337:171 0.000393736
39 *331:83 *339:10 0
40 *331:83 *339:47 2.20966e-05
41 *331:83 *339:53 2.1786e-05
42 *331:83 *340:16 0.000501519
43 *331:83 *340:25 0.000480088
44 *331:83 *340:46 0.000529958
45 *331:83 *340:50 0.000234727
46 *331:83 *340:59 0.000549904
47 *331:83 *340:68 0.000500875
48 *331:83 *340:77 0.000607281
49 *331:83 *340:86 0.000314568
50 *331:83 *340:95 0
51 *331:83 *340:104 0
52 *331:83 *340:113 0
53 *331:83 *340:122 0
54 *331:83 *340:131 0
55 *331:100 *1943:B 0.000341292
56 *331:100 *333:67 0
57 *331:100 *340:131 0.000128663
58 *331:100 *340:140 0.000500803
59 *331:100 *341:14 0.000659813
60 *331:100 *341:25 0.000443099
61 *331:100 *341:89 0.000181608
62 *331:100 *342:35 0.000181201
63 *331:100 *342:46 0.000534043
64 *331:100 *342:61 0.000531387
65 *331:100 *342:65 0.000446216
66 *331:100 *342:74 0.000656165
67 *331:100 *342:83 0.000340877
68 *331:100 *342:92 0.00060794
69 *331:100 *342:101 0.000181279
70 *331:100 *344:53 0
71 *331:108 *342:101 0.00018211
72 *331:108 *342:110 0.000744055
73 *331:108 *342:119 0.000426331
74 *331:108 *342:130 0
75 *331:112 *2003:B 8.00842e-05
76 *331:123 *2003:B 0.000176442
77 *331:123 *342:167 0
78 *1862:B *331:27 0
79 *1863:B *1866:B 0
80 *1863:B *331:27 0
81 *1865:B *331:8 4.75151e-05
82 *1865:C *331:8 4.75151e-05
83 *1867:B *1866:B 0
84 *1896:A *331:50 0.000208035
85 *1963:A *331:100 4.77425e-05
86 *1985:A *331:100 0.000321019
87 *2004:A *331:108 0.000279663
88 *2005:A *331:108 0.00039059
89 *2042:A *2041:A 0
90 *8:53 *331:27 8.00842e-05
91 *9:23 *331:27 0
92 *35:10 *331:123 0.00263921
93 *37:12 *331:123 0.000300562
94 *146:8 *331:108 0.000287672
95 *158:14 *331:100 0
96 *171:8 *2041:A 4.77425e-05
97 *178:6 *2041:A 0
98 *272:25 *2041:A 0.00012816
99 *277:68 *2041:A 0
100 *286:10 *331:27 0.00433585
101 *286:37 *331:27 0.00018128
102 *288:18 *2041:A 0.000445348
103 *288:18 *331:27 0.00187628
104 *307:125 *331:100 0.00023464
105 *309:27 *2041:A 0
106 *309:46 *331:27 0
107 *312:46 *331:31 0.000288173
108 *312:46 *331:50 0.00175807
109 *312:57 *331:50 0
110 *312:132 *2007:A 0.000176015
111 *314:69 *331:27 1.51734e-05
112 *314:87 *331:50 0
113 *316:47 *331:50 0
114 *316:59 *331:83 0.00076728
115 *320:58 *331:27 0
116 *320:62 *331:27 7.52158e-05
117 *321:45 *331:50 0.000989373
118 *321:60 *331:50 0.000182121
119 *321:83 *331:100 3.23417e-05
120 *322:71 *331:83 0
121 *322:71 *331:100 0
122 *325:56 *331:83 0.000901154
123 *326:87 *331:108 0.000393453
124 *327:45 *331:27 0
125 *328:60 *331:58 0.000287758
126 *328:60 *331:83 0.000869698
127 *328:68 *331:83 0.00171825
128 *330:44 *331:50 0
129 *330:69 *331:83 0
130 *330:73 *331:83 2.14736e-05
131 *330:89 *331:108 0.000485895
*RES
1 *1865:Y *331:8 40.3193 
2 *331:8 *2041:A 46.9422 
3 *331:8 *331:27 46.2341 
4 *331:27 *331:31 21.339 
5 *331:31 *1866:B 41.1845 
6 *331:31 *331:50 48.3765 
7 *331:50 *331:58 35.1101 
8 *331:58 *1905:A 40.3193 
9 *331:58 *331:83 37.286 
10 *331:83 *1939:A 40.3193 
11 *331:83 *331:100 45.3998 
12 *331:100 *331:108 33.1325 
13 *331:108 *331:112 20.5356 
14 *331:112 *1973:A 20 
15 *331:112 *331:123 33.4003 
16 *331:123 *2007:A 41.1845 
*END

*D_NET *332 0.0713424
*CONN
*I *1908:A I *D sg13g2_nand2_1
*I *1976:A I *D sg13g2_nand2_1
*I *2010:A I *D sg13g2_nand2_1
*I *1942:A I *D sg13g2_nand2_1
*I *1871:B I *D sg13g2_nand2_1
*I *2044:A I *D sg13g2_nand2_1
*I *1868:X O *D sg13g2_and3_1
*CAP
1 *1908:A 0
2 *1976:A 0
3 *2010:A 5.09204e-05
4 *1942:A 8.34412e-05
5 *1871:B 0
6 *2044:A 0.0002449
7 *1868:X 0.000755389
8 *332:118 0.00036466
9 *332:101 0.000595579
10 *332:97 0.00115917
11 *332:93 0.00147493
12 *332:89 0.00294572
13 *332:74 0.00368662
14 *332:72 0.00198031
15 *332:64 0.0011259
16 *332:58 0.00111108
17 *332:54 0.000677229
18 *332:48 0.00248542
19 *332:44 0.00197816
20 *332:35 0.0012291
21 *332:10 0.00214237
22 *332:10 *333:8 0
23 *332:44 *1870:B 0
24 *332:44 *333:22 0
25 *332:48 *1880:B 0.000180683
26 *332:48 *335:43 0
27 *332:48 *337:58 0.000444733
28 *332:48 *337:60 0.000709434
29 *332:48 *337:62 0.000288294
30 *332:48 *337:64 0.000713574
31 *332:48 *338:10 0
32 *332:48 *338:12 0
33 *332:48 *338:31 0.000716271
34 *332:48 *338:112 0
35 *332:64 *333:55 0.00241316
36 *332:64 *339:53 0
37 *332:74 *333:55 0
38 *332:74 *339:53 0.000496478
39 *332:74 *339:64 0.000428224
40 *332:74 *339:75 0.00048193
41 *332:74 *339:90 0.000107727
42 *332:74 *339:96 0.000771043
43 *332:74 *339:107 0.000503098
44 *332:74 *339:118 0.00050124
45 *332:74 *339:129 0.000500688
46 *332:74 *339:140 0.000498254
47 *332:74 *339:151 0.000503098
48 *332:74 *339:166 0.000394248
49 *332:93 *335:82 0.00248539
50 *332:101 *343:61 0.000606376
51 *332:101 *344:158 0.000657351
52 *332:101 *344:169 0.000799392
53 *332:101 *344:201 0.000318684
54 *332:118 *1975:A 4.77425e-05
55 *332:118 *1977:B 8.00842e-05
56 output_no[103] *332:89 0.000272365
57 output_no[110] *332:97 0
58 output_no[78] *332:64 0.000143351
59 output_no[94] *1942:A 7.98582e-05
60 output_o[104] *332:89 0
61 output_o[111] *332:97 0
62 output_o[116] *2010:A 8.00842e-05
63 *1831:B *332:10 0.000144655
64 *1832:A *332:10 0.0001122
65 *1875:A *332:48 0
66 *2005:A *332:101 0.000709581
67 *3:332 *332:10 4.77425e-05
68 *97:10 *332:35 1.54008e-05
69 *143:8 *332:89 0.00012816
70 *153:10 *332:118 0.000394652
71 *158:18 *332:118 0.000394237
72 *166:12 *332:101 0.00146087
73 *224:8 *332:35 0.000395067
74 *252:8 *332:74 0.000236276
75 *277:93 *332:10 0.000248752
76 *304:16 *332:35 0.00032018
77 *304:20 *332:35 0.000342122
78 *304:28 *332:35 0.000412036
79 *304:30 *332:35 0.000427969
80 *304:32 *332:35 0.000526959
81 *304:34 *332:35 0.00048193
82 *304:36 *332:35 0.000960614
83 *304:38 *332:35 0.000427041
84 *304:40 *332:35 0.000481001
85 *304:42 *2044:A 0.000608233
86 *304:42 *332:35 7.51285e-05
87 *305:8 *332:48 0
88 *305:10 *332:48 0
89 *306:70 *332:48 0.000233591
90 *312:46 *332:48 0.00284359
91 *312:57 *332:48 0.000212648
92 *313:86 *332:72 0
93 *313:163 *332:10 0
94 *314:87 *332:48 0.000128537
95 *315:102 *332:89 0.000768257
96 *316:47 *332:48 0.00273725
97 *316:59 *332:54 0.00268894
98 *317:84 *332:48 0
99 *321:60 *332:54 0.00246188
100 *324:18 *2044:A 0.000607697
101 *324:18 *332:35 0.00281878
102 *324:33 *332:35 0.000604312
103 *325:66 *332:74 0
104 *325:66 *332:89 0
105 *327:59 *332:64 0.000393823
106 *328:60 *332:58 1.54008e-05
107 *328:60 *332:64 8.00842e-05
108 *330:69 *332:64 0
109 *330:69 *332:72 0
110 *330:73 *332:74 0
111 *330:89 *332:74 0.000606568
112 *330:89 *332:89 0.00408161
113 *330:112 *332:101 0.000394891
*RES
1 *1868:X *332:10 46.7259 
2 *332:10 *2044:A 43.7904 
3 *332:10 *332:35 42.4952 
4 *332:35 *1871:B 20 
5 *332:35 *332:44 20.7519 
6 *332:44 *332:48 49.2726 
7 *332:48 *332:54 33.3076 
8 *332:54 *332:58 20.7519 
9 *332:58 *332:64 32.4115 
10 *332:64 *332:72 41.133 
11 *332:72 *332:74 24.0814 
12 *332:74 *1942:A 40.7519 
13 *332:74 *332:89 41.4652 
14 *332:89 *332:93 36.9126 
15 *332:93 *332:97 22.0497 
16 *332:97 *332:101 31.9686 
17 *332:101 *2010:A 40.5356 
18 *332:97 *332:118 44.532 
19 *332:118 *1976:A 20 
20 *332:58 *1908:A 20 
*END

*D_NET *333 0.0634789
*CONN
*I *2043:A I *D sg13g2_nor2_1
*I *1907:A I *D sg13g2_nor2_1
*I *1941:A I *D sg13g2_nor2_1
*I *2009:A I *D sg13g2_nor2_1
*I *1975:A I *D sg13g2_nor2_1
*I *1870:B I *D sg13g2_nor2_1
*I *1869:Y O *D sg13g2_nand3_1
*CAP
1 *2043:A 0
2 *1907:A 0.000111597
3 *1941:A 2.83743e-05
4 *2009:A 0
5 *1975:A 3.34444e-05
6 *1870:B 6.5411e-05
7 *1869:Y 0.000205195
8 *333:98 0.00115057
9 *333:79 0.00118401
10 *333:75 0.0016085
11 *333:69 0.0016085
12 *333:67 0.000369942
13 *333:59 0.000549778
14 *333:55 0.00256267
15 *333:53 0.00248277
16 *333:49 0.00223244
17 *333:45 0.00226772
18 *333:37 0.0016262
19 *333:33 0.00140775
20 *333:22 0.000236315
21 *333:18 0.00197902
22 *333:8 0.00201331
23 *333:18 *346:8 0.00279833
24 *333:49 *335:55 0
25 *333:49 *337:16 0
26 *333:49 *337:47 0.000443782
27 *333:49 *337:134 0
28 *333:49 *337:145 0
29 *333:49 *337:156 0
30 *333:55 *335:55 0.000554164
31 *333:55 *335:63 0
32 *333:55 *339:53 0
33 *333:55 *339:96 0
34 *333:55 *339:107 0
35 *333:55 *339:118 0
36 *333:67 *1943:B 0.000319022
37 *333:67 *340:140 0.000128663
38 *333:67 *341:14 0.000662717
39 *333:67 *341:25 0.000106109
40 *333:98 *1977:B 0.00012816
41 *333:98 *1978:B 0.000181192
42 *333:98 *2012:A 0.000553256
43 *333:98 *343:65 0
44 *333:98 *343:89 0.000434745
45 *333:98 *343:98 0
46 *333:98 *343:120 0
47 *333:98 *343:131 0.000234324
48 *333:98 *343:142 0.000235075
49 *333:98 *343:153 0.000235147
50 *333:98 *343:166 0.000234224
51 output_no[118] *333:98 8.00842e-05
52 output_no[124] *333:98 0.00178096
53 *1867:B *1870:B 0
54 *1867:B *333:22 0
55 *1869:B *333:8 0
56 *9:37 *333:18 0.000449845
57 *10:64 *333:18 0.000446263
58 *37:12 *333:98 0.00155064
59 *163:20 *333:75 0
60 *248:10 *333:55 0.000340704
61 *306:48 *333:18 0.00012816
62 *310:78 *333:37 0.00121292
63 *312:46 *333:18 0
64 *312:73 *333:55 0
65 *312:86 *333:55 0
66 *312:99 *333:55 0.00475983
67 *313:63 *333:37 0
68 *315:69 *333:45 0
69 *316:32 *333:49 0
70 *318:33 *333:49 0
71 *319:70 *333:45 0.000112223
72 *319:176 *333:98 0
73 *322:35 *333:49 0
74 *322:54 *333:49 0
75 *324:33 *333:49 0.0029583
76 *325:66 *333:55 0.00193357
77 *326:79 *333:75 0.00496578
78 *327:59 *333:49 0.00145752
79 *327:59 *333:55 7.51285e-05
80 *328:91 *333:75 0.00562347
81 *328:112 *333:75 8.03068e-05
82 *329:46 *333:37 0
83 *330:31 *333:18 0
84 *330:44 *333:18 0.000341949
85 *330:48 *333:37 0
86 *330:69 *333:49 0.000289306
87 *330:89 *333:67 0.00145861
88 *331:31 *333:18 0
89 *331:100 *333:67 0
90 *332:10 *333:8 0
91 *332:44 *1870:B 0
92 *332:44 *333:22 0
93 *332:64 *333:55 0.00241316
94 *332:74 *333:55 0
95 *332:118 *1975:A 4.77425e-05
*RES
1 *1869:Y *333:8 21.751 
2 *333:8 *333:18 41.8566 
3 *333:18 *333:22 21.4008 
4 *333:22 *1870:B 20.5356 
5 *333:22 *333:33 40 
6 *333:33 *333:37 35.1822 
7 *333:37 *333:45 41.9982 
8 *333:45 *333:49 45.8118 
9 *333:49 *333:53 20.5356 
10 *333:53 *333:55 35.6998 
11 *333:55 *333:59 21.1845 
12 *333:59 *333:67 47.0967 
13 *333:67 *333:69 20 
14 *333:69 *333:75 31.4253 
15 *333:75 *333:79 40 
16 *333:79 *1975:A 40.3193 
17 *333:79 *333:98 37.6233 
18 *333:98 *2009:A 20 
19 *333:59 *1941:A 20.3193 
20 *333:49 *1907:A 20.9682 
21 *333:8 *2043:A 20 
*END

*D_NET *334 0.0531847
*CONN
*I *2012:A I *D sg13g2_nand2_1
*I *1978:A I *D sg13g2_nand2_1
*I *1944:A I *D sg13g2_nand2_1
*I *1910:A I *D sg13g2_nand2_1
*I *1875:B I *D sg13g2_nand2_1
*I *2046:A I *D sg13g2_nand2_1
*I *1872:X O *D sg13g2_and2_1
*CAP
1 *2012:A 0.000213702
2 *1978:A 0
3 *1944:A 0
4 *1910:A 0
5 *1875:B 0.000163469
6 *2046:A 0.000538638
7 *1872:X 3.01427e-05
8 *334:88 0.000491941
9 *334:82 0.00401353
10 *334:73 4.7019e-05
11 *334:67 0.00679374
12 *334:65 0.00305845
13 *334:56 0
14 *334:52 0.000142809
15 *334:48 0.00273264
16 *334:46 0.0027463
17 *334:33 0.000475763
18 *334:29 0.00394111
19 *334:8 0.00430705
20 *2012:A *343:65 0.000340288
21 *2046:A *335:10 0
22 *334:8 *335:10 0
23 *334:29 *342:12 0.00108891
24 *334:48 *1877:B 0.000160341
25 *334:48 *336:8 0.000288675
26 *1740:B *334:29 0.000317737
27 *1764:A_N *334:29 0
28 *1812:A *334:33 0
29 *1813:A *1875:B 0
30 *1853:B *334:29 0.000129659
31 *1980:A_N *334:33 4.76973e-05
32 *2013:B *334:29 0.000288087
33 *3:238 *334:29 0.000181588
34 *3:304 *334:29 7.54955e-05
35 *8:21 *334:29 0.000557987
36 *8:57 *334:29 0.000106064
37 *8:59 *334:29 0.000586257
38 *8:61 *334:29 0.000106064
39 *9:17 *334:29 0.000609356
40 *9:29 *334:29 0.000719869
41 *10:48 *334:48 0
42 *10:50 *334:48 0
43 *10:56 *334:48 0
44 *10:92 *334:29 0
45 *208:14 *2046:A 0.000305013
46 *272:12 *334:29 0
47 *277:49 *2046:A 0
48 *277:49 *334:29 0
49 *280:27 *2046:A 0
50 *285:12 *334:29 0
51 *287:8 *334:29 0
52 *287:38 *2046:A 0
53 *308:52 *334:67 0.00136798
54 *310:49 *334:29 0.000126859
55 *310:105 *334:67 0
56 *311:73 *334:48 0.00242151
57 *312:65 *334:67 0.00131386
58 *313:82 *334:67 0
59 *314:98 *334:67 0
60 *317:93 *334:67 0
61 *317:114 *334:67 0
62 *317:114 *334:82 0
63 *317:133 *334:82 0.00101468
64 *321:60 *334:48 0
65 *324:12 *334:8 4.77425e-05
66 *324:48 *334:48 0.00297853
67 *329:23 *2046:A 0.0002849
68 *329:23 *334:29 0.00197518
69 *329:25 *334:29 2.24836e-05
70 *329:44 *334:29 0.0006095
71 *330:44 *334:46 0.000399086
72 *331:50 *334:46 0.000468614
73 *331:50 *334:48 0.00399515
74 *333:98 *2012:A 0.000553256
*RES
1 *1872:X *334:8 40.3193 
2 *334:8 *2046:A 44.9028 
3 *334:8 *334:29 40.994 
4 *334:29 *334:33 21.8334 
5 *334:33 *1875:B 21.4008 
6 *334:33 *334:46 22.3999 
7 *334:46 *334:48 36.9358 
8 *334:48 *334:52 20.7519 
9 *334:52 *334:56 40 
10 *334:56 *1910:A 20 
11 *334:52 *334:65 20.3193 
12 *334:65 *334:67 35.6998 
13 *334:67 *334:73 40.3193 
14 *334:73 *1944:A 40 
15 *334:67 *334:82 38.1718 
16 *334:82 *334:88 42.4823 
17 *334:88 *1978:A 40 
18 *334:88 *2012:A 43.2136 
*END

*D_NET *335 0.0553856
*CONN
*I *2045:A I *D sg13g2_nor2_1
*I *1909:A I *D sg13g2_nor2_1
*I *2011:A I *D sg13g2_nor2_1
*I *1977:A I *D sg13g2_nor2_1
*I *1943:A I *D sg13g2_nor2_1
*I *1874:B I *D sg13g2_nor2_1
*I *1873:Y O *D sg13g2_nand2_1
*CAP
1 *2045:A 0
2 *1909:A 0.000185541
3 *2011:A 0.000538243
4 *1977:A 0.000171988
5 *1943:A 0.00025248
6 *1874:B 3.56925e-05
7 *1873:Y 0.000506763
8 *335:82 0.00363316
9 *335:63 0.00619253
10 *335:55 0.00486612
11 *335:53 0.00171882
12 *335:47 0.00148555
13 *335:43 0.00251429
14 *335:28 0.00133024
15 *335:24 0.00200319
16 *335:20 0.00179274
17 *335:16 0.000550156
18 *335:10 0.00105692
19 *2011:A *344:154 0.000659812
20 *335:43 *1879:B 0.000341176
21 *335:43 *338:41 0.000319081
22 *335:43 *338:43 0.000428647
23 *335:82 *341:59 0
24 *335:82 *341:70 0
25 *335:82 *341:96 0
26 *335:82 *341:107 0
27 *335:82 *341:162 0
28 *335:82 *344:125 0.000661559
29 *335:82 *344:137 0.00032696
30 *335:82 *344:154 0
31 output_no[46] *335:16 0
32 output_no[79] *1909:A 0
33 output_no[95] *1943:A 0
34 output_o[111] *1977:A 0.000175693
35 output_o[47] *335:10 8.0039e-05
36 output_o[47] *335:16 0.000272911
37 output_o[79] *1909:A 0.000175693
38 output_o[95] *1943:A 0.000240187
39 *1875:A *335:43 0.000265575
40 *2046:A *335:10 0
41 *19:10 *335:82 0
42 *21:10 *335:82 0.000501962
43 *41:10 *2011:A 0.000392886
44 *97:10 *1874:B 0
45 *142:10 *335:82 0
46 *145:10 *335:82 0
47 *158:24 *2011:A 0.000240377
48 *169:8 *2011:A 0.000175693
49 *208:14 *335:10 0
50 *304:12 *1874:B 1.54008e-05
51 *304:14 *335:43 7.33256e-05
52 *311:90 *335:63 0.000561259
53 *311:92 *335:63 0.00334821
54 *311:92 *335:82 0.00127526
55 *312:73 *335:63 0.00108472
56 *312:86 *335:63 0.000267148
57 *312:99 *335:63 0
58 *312:99 *335:82 0
59 *315:50 *335:24 0
60 *315:54 *335:43 7.34423e-05
61 *315:71 *335:47 0
62 *315:108 *2011:A 0
63 *316:24 *335:16 0.00204745
64 *318:22 *335:16 0.00205049
65 *319:70 *335:47 0.000717913
66 *321:37 *335:24 0.00306761
67 *321:37 *335:47 0
68 *322:54 *335:55 0
69 *322:54 *335:63 0.00161857
70 *323:26 *335:24 0
71 *323:41 *335:47 0
72 *324:12 *335:10 0
73 *324:33 *335:43 0
74 *326:43 *335:24 0.00205254
75 *326:43 *335:47 0
76 *327:59 *335:55 0
77 *332:48 *335:43 0
78 *332:93 *335:82 0.00248539
79 *333:49 *335:55 0
80 *333:55 *335:55 0.000554164
81 *333:55 *335:63 0
82 *334:8 *335:10 0
*RES
1 *1873:Y *335:10 24.4805 
2 *335:10 *335:16 31.33 
3 *335:16 *335:20 40 
4 *335:20 *335:24 49.0254 
5 *335:24 *335:28 21.6171 
6 *335:28 *1874:B 40.3193 
7 *335:28 *335:43 31.2064 
8 *335:43 *335:47 36.171 
9 *335:47 *335:53 40.5356 
10 *335:53 *335:55 15.6766 
11 *335:55 *335:63 36.6577 
12 *335:63 *1943:A 42.369 
13 *335:63 *335:82 37.1521 
14 *335:82 *1977:A 41.6171 
15 *335:82 *2011:A 47.1585 
16 *335:55 *1909:A 41.6171 
17 *335:10 *2045:A 20 
*END

*D_NET *336 0.000946429
*CONN
*I *1877:B I *D sg13g2_nor2_1
*I *1878:B I *D sg13g2_or2_1
*I *1876:Y O *D sg13g2_nand2_1
*CAP
1 *1877:B 0.000129469
2 *1878:B 0
3 *1876:Y 0.000111537
4 *336:8 0.000241006
5 *1877:B *337:10 1.54008e-05
6 *10:50 *1877:B 0
7 *10:56 *1877:B 0
8 *10:56 *336:8 0
9 *334:48 *1877:B 0.000160341
10 *334:48 *336:8 0.000288675
*RES
1 *1876:Y *336:8 41.339 
2 *336:8 *1878:B 40 
3 *336:8 *1877:B 41.4832 
*END

*D_NET *337 0.0183083
*CONN
*I *1900:B I *D sg13g2_nand2_1
*I *1910:B I *D sg13g2_nand2_1
*I *1908:B I *D sg13g2_nand2_1
*I *1906:B I *D sg13g2_nand2_1
*I *1904:B I *D sg13g2_nand2_1
*I *1902:B I *D sg13g2_nand2_1
*I *1898:B I *D sg13g2_nand2_1
*I *1894:B I *D sg13g2_nand2b_1
*I *1892:B I *D sg13g2_nand2_1
*I *1888:B I *D sg13g2_nand2_1
*I *1886:B I *D sg13g2_nand2b_1
*I *1884:B I *D sg13g2_nand2_1
*I *1882:B I *D sg13g2_nand2_1
*I *1880:B I *D sg13g2_nand2_1
*I *1890:B I *D sg13g2_nand2_1
*I *1896:B I *D sg13g2_nand2_1
*I *1877:Y O *D sg13g2_nor2_1
*CAP
1 *1900:B 0
2 *1910:B 0.000268701
3 *1908:B 0
4 *1906:B 5.60315e-05
5 *1904:B 5.16874e-05
6 *1902:B 5.02556e-05
7 *1898:B 5.46918e-05
8 *1894:B 0
9 *1892:B 0
10 *1888:B 6.59029e-05
11 *1886:B 3.60847e-05
12 *1884:B 4.64283e-05
13 *1882:B 0.00019519
14 *1880:B 0.000138908
15 *1890:B 0
16 *1896:B 5.76605e-05
17 *1877:Y 0.00029821
18 *337:171 0.000398784
19 *337:156 0.000359855
20 *337:145 0.000419382
21 *337:134 0.00088232
22 *337:64 0.000622208
23 *337:62 0.000442457
24 *337:60 0.000385704
25 *337:58 0.000542672
26 *337:47 0.000651363
27 *337:37 0.000568003
28 *337:33 0.000496335
29 *337:18 0.000577329
30 *337:16 0.000473992
31 *337:14 0.000944832
32 *337:10 0.000360674
33 *1880:B *338:43 0
34 *337:33 *338:12 0
35 *337:33 *338:14 0
36 *337:37 *338:31 0
37 *337:58 *338:35 0
38 *337:58 *338:37 0
39 *337:60 *338:39 0
40 *337:60 *338:41 0
41 *337:62 *338:41 0
42 *337:64 *338:43 0
43 output_no[65] *1880:B 8.00842e-05
44 output_no[69] *337:47 0.000143384
45 output_no[70] *337:47 0.000143306
46 output_no[72] *1896:B 4.77425e-05
47 output_no[73] *1898:B 4.77425e-05
48 output_no[74] *337:14 4.77425e-05
49 output_no[75] *1902:B 4.77425e-05
50 output_no[76] *1904:B 4.77425e-05
51 output_no[77] *1906:B 4.77425e-05
52 output_no[78] *337:171 4.77425e-05
53 *1877:B *337:10 1.54008e-05
54 *1881:A *1882:B 0.000272718
55 *1886:A_N *1886:B 8.00842e-05
56 *235:8 *337:33 0.000288588
57 *311:63 *337:10 0
58 *313:71 *337:60 0.000284153
59 *317:84 *337:33 0
60 *317:84 *337:58 7.34783e-05
61 *318:33 *337:47 0
62 *319:84 *337:33 1.56814e-05
63 *319:84 *337:37 0
64 *319:101 *337:33 0.000305104
65 *319:101 *337:37 7.52158e-05
66 *322:35 *337:47 0
67 *324:33 *337:16 0.000427775
68 *324:33 *337:18 0.000449332
69 *324:33 *337:33 0
70 *330:69 *337:156 0.000126552
71 *330:69 *337:171 0.000373814
72 *331:58 *337:16 0
73 *331:58 *337:18 0
74 *331:58 *337:33 0.000181694
75 *331:58 *337:134 0.00101957
76 *331:58 *337:145 0.000500629
77 *331:58 *337:156 0.00018211
78 *331:83 *337:156 0.000315534
79 *331:83 *337:171 0.000393736
80 *332:48 *1880:B 0.000180683
81 *332:48 *337:58 0.000444733
82 *332:48 *337:60 0.000709434
83 *332:48 *337:62 0.000288294
84 *332:48 *337:64 0.000713574
85 *333:49 *337:16 0
86 *333:49 *337:47 0.000443782
87 *333:49 *337:134 0
88 *333:49 *337:145 0
89 *333:49 *337:156 0
*RES
1 *1877:Y *337:10 22.7501 
2 *337:10 *337:14 20.5356 
3 *337:14 *337:16 2.575 
4 *337:16 *337:18 2.0806 
5 *337:18 *1896:B 40.5356 
6 *337:18 *337:33 4.2024 
7 *337:33 *337:37 21.339 
8 *337:37 *337:47 44.3616 
9 *337:47 *1890:B 20 
10 *337:47 *337:58 22.6162 
11 *337:58 *337:60 3.3166 
12 *337:60 *337:62 1.339 
13 *337:62 *337:64 3.3166 
14 *337:64 *1880:B 41.3802 
15 *337:64 *1882:B 41.8334 
16 *337:62 *1884:B 40.5356 
17 *337:60 *1886:B 40.5356 
18 *337:58 *1888:B 40.5356 
19 *337:37 *1892:B 20 
20 *337:33 *1894:B 40 
21 *337:16 *1898:B 40.5356 
22 *337:14 *337:134 6.5302 
23 *337:134 *1902:B 40.5356 
24 *337:134 *337:145 2.3278 
25 *337:145 *1904:B 40.5356 
26 *337:145 *337:156 2.3278 
27 *337:156 *1906:B 40.5356 
28 *337:156 *337:171 22.369 
29 *337:171 *1908:B 20 
30 *337:171 *1910:B 22.266 
31 *337:10 *1900:B 20 
*END

*D_NET *338 0.0162779
*CONN
*I *1909:B I *D sg13g2_nor2_1
*I *1907:B I *D sg13g2_nor2_1
*I *1905:B I *D sg13g2_nor2_1
*I *1903:B I *D sg13g2_nor2_1
*I *1901:B I *D sg13g2_nor2_1
*I *1899:B I *D sg13g2_nor2_1
*I *1897:B I *D sg13g2_nor2_1
*I *1895:B I *D sg13g2_nor2_1
*I *1891:B I *D sg13g2_nor2_1
*I *1889:B I *D sg13g2_nor2_1
*I *1887:B I *D sg13g2_nor2_1
*I *1885:B I *D sg13g2_nor2_1
*I *1883:B I *D sg13g2_nor2_1
*I *1881:B I *D sg13g2_nor2_1
*I *1879:B I *D sg13g2_nor2_1
*I *1893:B I *D sg13g2_nor2_1
*I *1878:X O *D sg13g2_or2_1
*CAP
1 *1909:B 0.000111915
2 *1907:B 3.28618e-05
3 *1905:B 3.07512e-05
4 *1903:B 3.17494e-05
5 *1901:B 3.82144e-05
6 *1899:B 3.27477e-05
7 *1897:B 3.94477e-05
8 *1895:B 3.34444e-05
9 *1891:B 0
10 *1889:B 0
11 *1887:B 0
12 *1885:B 0
13 *1883:B 0
14 *1881:B 0
15 *1879:B 0.000136739
16 *1893:B 4.2857e-05
17 *1878:X 0.000165381
18 *338:156 0.000241554
19 *338:145 0.000236675
20 *338:134 0.000337204
21 *338:123 0.000713589
22 *338:112 0.000604166
23 *338:43 0.000308907
24 *338:41 0.00057023
25 *338:39 0.00052456
26 *338:37 0.000314421
27 *338:35 0.000364262
28 *338:31 0.0004879
29 *338:14 0.000531575
30 *338:12 0.000397398
31 *338:10 0.000360279
32 *338:8 0.000391767
33 *1880:B *338:43 0
34 *313:71 *338:37 0.000231726
35 *313:71 *338:39 7.46317e-05
36 *315:54 *338:39 0
37 *315:54 *338:41 0
38 *316:47 *338:123 0
39 *316:59 *1909:B 0.000340288
40 *316:59 *338:123 0.00108988
41 *316:59 *338:134 0.000500992
42 *316:59 *338:145 0.000501459
43 *316:59 *338:156 0.000500992
44 *317:84 *338:31 0.000128355
45 *317:84 *338:35 0.000283963
46 *319:84 *338:35 0.000262501
47 *319:84 *338:37 0.000500009
48 *319:101 *338:14 0.00012816
49 *319:101 *338:31 0.000128663
50 *321:60 *338:123 0
51 *328:60 *1909:B 0.00028056
52 *328:60 *338:145 0.000393736
53 *328:60 *338:156 0.000474717
54 *331:50 *1895:B 4.77425e-05
55 *331:58 *338:10 0.000318694
56 *331:58 *338:12 0.00039332
57 *331:58 *338:112 0.000212456
58 *331:58 *338:123 0.00059929
59 *331:58 *338:134 0
60 *331:58 *338:145 0
61 *331:83 *1909:B 0
62 *332:48 *338:10 0
63 *332:48 *338:12 0
64 *332:48 *338:31 0.000716271
65 *332:48 *338:112 0
66 *335:43 *1879:B 0.000341176
67 *335:43 *338:41 0.000319081
68 *335:43 *338:43 0.000428647
69 *337:33 *338:12 0
70 *337:33 *338:14 0
71 *337:37 *338:31 0
72 *337:58 *338:35 0
73 *337:58 *338:37 0
74 *337:60 *338:39 0
75 *337:60 *338:41 0
76 *337:62 *338:41 0
77 *337:64 *338:43 0
*RES
1 *1878:X *338:8 41.4008 
2 *338:8 *338:10 1.5862 
3 *338:10 *338:12 2.0806 
4 *338:12 *338:14 1.5862 
5 *338:14 *1893:B 40.3193 
6 *338:14 *338:31 24.1715 
7 *338:31 *338:35 22.0806 
8 *338:35 *338:37 2.575 
9 *338:37 *338:39 1.0918 
10 *338:39 *338:41 3.5638 
11 *338:41 *338:43 2.0806 
12 *338:43 *1879:B 41.5862 
13 *338:43 *1881:B 40 
14 *338:41 *1883:B 40 
15 *338:39 *1885:B 40 
16 *338:37 *1887:B 40 
17 *338:35 *1889:B 40 
18 *338:31 *1891:B 20 
19 *338:12 *1895:B 40.3193 
20 *338:10 *1897:B 40.3193 
21 *338:8 *338:112 1.0918 
22 *338:112 *1899:B 40.3193 
23 *338:112 *338:123 6.5302 
24 *338:123 *1901:B 40.3193 
25 *338:123 *338:134 2.3278 
26 *338:134 *1903:B 40.3193 
27 *338:134 *338:145 2.3278 
28 *338:145 *1905:B 40.3193 
29 *338:145 *338:156 2.3278 
30 *338:156 *1907:B 40.3193 
31 *338:156 *1909:B 41.9055 
*END

*D_NET *339 0.0207321
*CONN
*I *1920:B I *D sg13g2_nand2b_1
*I *1928:B I *D sg13g2_nand2b_1
*I *1944:B I *D sg13g2_nand2_1
*I *1942:B I *D sg13g2_nand2_1
*I *1940:B I *D sg13g2_nand2_1
*I *1938:B I *D sg13g2_nand2_1
*I *1936:B I *D sg13g2_nand2_1
*I *1934:B I *D sg13g2_nand2_1
*I *1932:B I *D sg13g2_nand2_1
*I *1930:B I *D sg13g2_nand2_1
*I *1926:B I *D sg13g2_nand2_1
*I *1924:B I *D sg13g2_nand2_1
*I *1922:B I *D sg13g2_nand2_1
*I *1918:B I *D sg13g2_nand2_1
*I *1916:B I *D sg13g2_nand2_1
*I *1914:B I *D sg13g2_nand2_1
*I *1911:Y O *D sg13g2_nor2_1
*CAP
1 *1920:B 0
2 *1928:B 4.0821e-05
3 *1944:B 0.000252532
4 *1942:B 0
5 *1940:B 0.000104263
6 *1938:B 0.000112175
7 *1936:B 0.000104263
8 *1934:B 0.000103311
9 *1932:B 0.000100088
10 *1930:B 0.000100011
11 *1926:B 4.10508e-05
12 *1924:B 4.84354e-05
13 *1922:B 5.38437e-05
14 *1918:B 3.7009e-05
15 *1916:B 3.77166e-05
16 *1914:B 3.78077e-05
17 *1911:Y 0.000299668
18 *339:166 0.00043792
19 *339:151 0.00038035
20 *339:140 0.000303844
21 *339:129 0.000302038
22 *339:118 0.000321457
23 *339:107 0.000413899
24 *339:96 0.000651233
25 *339:90 0.000450665
26 *339:75 0.000182842
27 *339:64 0.000222971
28 *339:53 0.000367562
29 *339:47 0.000313358
30 *339:32 0.000243547
31 *339:21 0.000268444
32 *339:10 0.000445138
33 *339:10 *340:16 0.000233463
34 *339:21 *340:16 0.000263555
35 *339:21 *340:25 0.000232094
36 *339:32 *340:25 0.000267843
37 *339:32 *340:46 0.000337111
38 *339:47 *340:46 0.0002453
39 *339:53 *340:46 1.54008e-05
40 output_no[83] *339:53 1.54008e-05
41 output_no[84] *1922:B 4.77425e-05
42 output_no[85] *1924:B 4.77425e-05
43 output_no[86] *1926:B 4.77425e-05
44 output_no[86] *339:96 0
45 output_no[88] *1930:B 0.000111568
46 output_no[89] *1932:B 0.000111568
47 output_no[90] *1934:B 0.000111568
48 output_no[91] *1936:B 0.000111568
49 output_no[92] *1938:B 4.77425e-05
50 output_no[93] *1940:B 0.000111568
51 output_no[94] *339:166 0.000111568
52 output_no[95] *1944:B 0
53 output_o[87] *1928:B 1.54008e-05
54 output_o[87] *339:96 7.92265e-05
55 *1913:A *339:10 0.00020799
56 *1920:A_N *339:47 1.54008e-05
57 *1920:A_N *339:53 8.00842e-05
58 *1928:A_N *1928:B 1.54008e-05
59 *1928:A_N *339:90 0
60 *316:59 *339:10 0.000500609
61 *316:59 *339:21 0.00049554
62 *316:59 *339:32 0.000604777
63 *316:59 *339:47 0.000288087
64 *325:66 *339:118 0.000340791
65 *325:66 *339:129 0.000477113
66 *325:66 *339:140 0.000475961
67 *325:66 *339:151 0.000479364
68 *325:66 *339:166 0.000372382
69 *330:69 *339:53 7.33225e-05
70 *330:73 *339:53 0.000654809
71 *330:73 *339:64 0.000447547
72 *330:73 *339:75 0.000501045
73 *330:73 *339:90 0.000128576
74 *331:83 *339:10 0
75 *331:83 *339:47 2.20966e-05
76 *331:83 *339:53 2.1786e-05
77 *332:64 *339:53 0
78 *332:74 *339:53 0.000496478
79 *332:74 *339:64 0.000428224
80 *332:74 *339:75 0.00048193
81 *332:74 *339:90 0.000107727
82 *332:74 *339:96 0.000771043
83 *332:74 *339:107 0.000503098
84 *332:74 *339:118 0.00050124
85 *332:74 *339:129 0.000500688
86 *332:74 *339:140 0.000498254
87 *332:74 *339:151 0.000503098
88 *332:74 *339:166 0.000394248
89 *333:55 *339:53 0
90 *333:55 *339:96 0
91 *333:55 *339:107 0
92 *333:55 *339:118 0
*RES
1 *1911:Y *339:10 43.7286 
2 *339:10 *1914:B 40.3193 
3 *339:10 *339:21 2.3278 
4 *339:21 *1916:B 40.3193 
5 *339:21 *339:32 2.8222 
6 *339:32 *1918:B 40.3193 
7 *339:32 *339:47 21.6583 
8 *339:47 *339:53 23.8522 
9 *339:53 *1922:B 40.5356 
10 *339:53 *339:64 2.0806 
11 *339:64 *1924:B 40.5356 
12 *339:64 *339:75 2.3278 
13 *339:75 *1926:B 40.5356 
14 *339:75 *339:90 20.9476 
15 *339:90 *339:96 24.0994 
16 *339:96 *1930:B 40.9682 
17 *339:96 *339:107 2.3278 
18 *339:107 *1932:B 40.9682 
19 *339:107 *339:118 2.3278 
20 *339:118 *1934:B 40.9682 
21 *339:118 *339:129 2.3278 
22 *339:129 *1936:B 40.9682 
23 *339:129 *339:140 2.3278 
24 *339:140 *1938:B 40.9682 
25 *339:140 *339:151 2.3278 
26 *339:151 *1940:B 40.9682 
27 *339:151 *339:166 22.8016 
28 *339:166 *1942:B 20 
29 *339:166 *1944:B 22.266 
30 *339:90 *1928:B 20.5356 
31 *339:47 *1920:B 20 
*END

*D_NET *340 0.0162545
*CONN
*I *1913:B I *D sg13g2_nor2_1
*I *1919:B I *D sg13g2_nor2_1
*I *1943:B I *D sg13g2_nor2_1
*I *1941:B I *D sg13g2_nor2_1
*I *1939:B I *D sg13g2_nor2_1
*I *1937:B I *D sg13g2_nor2_1
*I *1935:B I *D sg13g2_nor2_1
*I *1933:B I *D sg13g2_nor2_1
*I *1931:B I *D sg13g2_nor2_1
*I *1929:B I *D sg13g2_nor2_1
*I *1927:B I *D sg13g2_nor2_1
*I *1925:B I *D sg13g2_nor2_1
*I *1923:B I *D sg13g2_nor2_1
*I *1921:B I *D sg13g2_nor2_1
*I *1917:B I *D sg13g2_nor2_1
*I *1915:B I *D sg13g2_nor2_1
*I *1912:X O *D sg13g2_or2_1
*CAP
1 *1913:B 0
2 *1919:B 0
3 *1943:B 6.21178e-05
4 *1941:B 0
5 *1939:B 0
6 *1937:B 0
7 *1935:B 0
8 *1933:B 0
9 *1931:B 0
10 *1929:B 0
11 *1927:B 0
12 *1925:B 0
13 *1923:B 0
14 *1921:B 0
15 *1917:B 0
16 *1915:B 0
17 *1912:X 0.000287281
18 *340:140 0.000206778
19 *340:131 0.000314927
20 *340:122 0.000385732
21 *340:113 0.000414295
22 *340:104 0.00039766
23 *340:95 0.000396478
24 *340:86 0.000264147
25 *340:77 0.000177199
26 *340:68 0.000201508
27 *340:59 0.00020282
28 *340:50 0.000155917
29 *340:46 0.000388871
30 *340:25 0.000439073
31 *340:16 0.00019316
32 *340:12 0.000386335
33 output_no[83] *340:46 0
34 *330:73 *340:50 0.000235228
35 *330:73 *340:59 0.000530507
36 *330:73 *340:68 0.000480215
37 *330:73 *340:77 0.000585842
38 *330:73 *340:86 0.000319852
39 *330:73 *340:95 0.000479778
40 *330:73 *340:104 0.000478949
41 *330:73 *340:113 0.000478949
42 *330:73 *340:122 0.000472559
43 *330:73 *340:131 0.000479778
44 *330:73 *340:140 0.000106392
45 *330:89 *340:140 0
46 *331:83 *340:16 0.000501519
47 *331:83 *340:25 0.000480088
48 *331:83 *340:46 0.000529958
49 *331:83 *340:50 0.000234727
50 *331:83 *340:59 0.000549904
51 *331:83 *340:68 0.000500875
52 *331:83 *340:77 0.000607281
53 *331:83 *340:86 0.000314568
54 *331:83 *340:95 0
55 *331:83 *340:104 0
56 *331:83 *340:113 0
57 *331:83 *340:122 0
58 *331:83 *340:131 0
59 *331:100 *1943:B 0.000341292
60 *331:100 *340:131 0.000128663
61 *331:100 *340:140 0.000500803
62 *333:67 *1943:B 0.000319022
63 *333:67 *340:140 0.000128663
64 *339:10 *340:16 0.000233463
65 *339:21 *340:16 0.000263555
66 *339:21 *340:25 0.000232094
67 *339:32 *340:25 0.000267843
68 *339:32 *340:46 0.000337111
69 *339:47 *340:46 0.0002453
70 *339:53 *340:46 1.54008e-05
*RES
1 *1912:X *340:12 22.9149 
2 *340:12 *340:16 22.3278 
3 *340:16 *1915:B 40 
4 *340:16 *340:25 2.3278 
5 *340:25 *1917:B 40 
6 *340:25 *340:46 25.3766 
7 *340:46 *340:50 21.0918 
8 *340:50 *1921:B 40 
9 *340:50 *340:59 2.575 
10 *340:59 *1923:B 40 
11 *340:59 *340:68 2.3278 
12 *340:68 *1925:B 40 
13 *340:68 *340:77 2.8222 
14 *340:77 *1927:B 40 
15 *340:77 *340:86 1.5862 
16 *340:86 *1929:B 40 
17 *340:86 *340:95 2.3278 
18 *340:95 *1931:B 40 
19 *340:95 *340:104 2.3278 
20 *340:104 *1933:B 40 
21 *340:104 *340:113 2.3278 
22 *340:113 *1935:B 40 
23 *340:113 *340:122 2.3278 
24 *340:122 *1937:B 40 
25 *340:122 *340:131 2.3278 
26 *340:131 *1939:B 40 
27 *340:131 *340:140 2.3278 
28 *340:140 *1941:B 40 
29 *340:140 *1943:B 41.5862 
30 *340:46 *1919:B 20 
31 *340:12 *1913:B 20 
*END

*D_NET *341 0.0273154
*CONN
*I *1950:B I *D sg13g2_nand2_1
*I *1978:B I *D sg13g2_nand2_1
*I *1976:B I *D sg13g2_nand2_1
*I *1974:B I *D sg13g2_nand2_1
*I *1972:B I *D sg13g2_nand2_1
*I *1970:B I *D sg13g2_nand2_1
*I *1966:B I *D sg13g2_nand2_1
*I *1968:B I *D sg13g2_nand2_1
*I *1964:B I *D sg13g2_nand2_1
*I *1962:B I *D sg13g2_nand2b_1
*I *1960:B I *D sg13g2_nand2_1
*I *1958:B I *D sg13g2_nand2_1
*I *1956:B I *D sg13g2_nand2_1
*I *1952:B I *D sg13g2_nand2_1
*I *1954:B I *D sg13g2_nand2b_1
*I *1948:B I *D sg13g2_nand2_1
*I *1945:Y O *D sg13g2_nor2_1
*CAP
1 *1950:B 0
2 *1978:B 0.000180595
3 *1976:B 0.000320744
4 *1974:B 0
5 *1972:B 3.59459e-05
6 *1970:B 4.01143e-05
7 *1966:B 6.60236e-05
8 *1968:B 0
9 *1964:B 0
10 *1962:B 0.000150088
11 *1960:B 0
12 *1958:B 0
13 *1956:B 0.000148896
14 *1952:B 3.15157e-05
15 *1954:B 0
16 *1948:B 0
17 *1945:Y 0.000421555
18 *341:204 0.000320744
19 *341:202 0.000394977
20 *341:189 0.000506497
21 *341:162 0.00107307
22 *341:138 0.000423421
23 *341:124 0.00083011
24 *341:111 0.000482933
25 *341:107 0.00115744
26 *341:96 0.000521289
27 *341:89 0.000278189
28 *341:74 0.000428212
29 *341:70 0.000482625
30 *341:59 0.00060491
31 *341:45 0.000378762
32 *341:35 0.000532674
33 *341:31 0.000614711
34 *341:25 0.000395125
35 *341:14 0.000580586
36 *1978:B *1977:B 0
37 *341:45 *1985:B 0.000112426
38 *341:45 *342:61 8.00842e-05
39 *341:111 *344:100 8.00842e-05
40 *341:124 *344:100 0.000240377
41 *341:162 *2001:B 0.000208035
42 *341:162 *344:125 4.77425e-05
43 *341:162 *344:137 7.51285e-05
44 *341:189 *342:156 0.000179357
45 *341:202 *342:156 0.00012816
46 *341:202 *342:167 0.000531565
47 output_no[100] *1956:B 0.000175693
48 output_no[101] *341:74 0.000175693
49 output_no[102] *341:74 0.0001122
50 output_no[102] *341:89 8.00842e-05
51 output_no[104] *341:111 0.000175693
52 output_no[106] *341:138 0
53 output_no[110] *1976:B 0.000127827
54 output_no[95] *341:14 0.000208656
55 output_no[97] *341:31 0.000175693
56 output_no[98] *341:35 0.000175693
57 output_o[103] *1962:B 0.000143351
58 output_o[108] *341:162 0
59 output_o[108] *341:189 0
60 *1947:A *341:14 0
61 *1959:A *341:89 0.000272911
62 *1962:A_N *1962:B 1.54008e-05
63 *1971:A *341:189 0
64 *1985:A *341:45 0.000128779
65 *2001:A *341:162 0
66 *2004:A *341:189 0.000178206
67 *2004:A *341:202 0.000318279
68 *2005:A *1978:B 0.000554078
69 *2005:A *341:202 0
70 *10:36 *341:14 4.77425e-05
71 *19:10 *341:162 0.000288174
72 *34:10 *1966:B 0.000112426
73 *34:10 *341:138 0.00011101
74 *142:10 *341:96 0.00012816
75 *145:10 *341:162 0.000341534
76 *154:16 *341:124 0.00039332
77 *155:12 *341:45 0
78 *158:14 *341:89 0.000181192
79 *158:14 *341:138 0.000340877
80 *163:10 *341:162 0.000554579
81 *164:8 *341:162 1.54008e-05
82 *307:110 *341:14 0
83 *311:100 *341:31 0.000175693
84 *312:99 *341:31 0.000551982
85 *312:99 *341:59 0.00042602
86 *312:116 *341:45 0
87 *315:102 *341:162 0
88 *320:92 *341:124 0
89 *323:75 *341:138 0.000272718
90 *324:63 *341:138 0.000340704
91 *324:67 *341:138 0.000176252
92 *325:66 *341:31 0.000551791
93 *325:66 *341:59 0.000981121
94 *325:66 *341:70 0.000661178
95 *325:66 *341:96 0.000501044
96 *325:66 *341:107 0.000767035
97 *325:66 *341:162 0.000767865
98 *330:89 *341:25 0
99 *330:89 *341:45 0.000290109
100 *331:100 *341:14 0.000659813
101 *331:100 *341:25 0.000443099
102 *331:100 *341:89 0.000181608
103 *333:67 *341:14 0.000662717
104 *333:67 *341:25 0.000106109
105 *333:98 *1978:B 0.000181192
106 *335:82 *341:59 0
107 *335:82 *341:70 0
108 *335:82 *341:96 0
109 *335:82 *341:107 0
110 *335:82 *341:162 0
*RES
1 *1945:Y *341:14 46.0667 
2 *341:14 *1948:B 40 
3 *341:14 *341:25 22.0806 
4 *341:25 *341:31 23.9758 
5 *341:31 *341:35 21.1845 
6 *341:35 *341:45 44.1715 
7 *341:45 *1954:B 20 
8 *341:35 *1952:B 20.3193 
9 *341:31 *341:59 4.5526 
10 *341:59 *1956:B 41.4008 
11 *341:59 *341:70 3.0694 
12 *341:70 *341:74 21.4008 
13 *341:74 *1958:B 20 
14 *341:74 *341:89 43.2136 
15 *341:89 *1960:B 20 
16 *341:70 *341:96 2.3278 
17 *341:96 *1962:B 41.4008 
18 *341:96 *341:107 3.5638 
19 *341:107 *341:111 21.4008 
20 *341:111 *1964:B 20 
21 *341:111 *341:124 43.4505 
22 *341:124 *341:138 45.5517 
23 *341:138 *1968:B 20 
24 *341:124 *1966:B 20.7519 
25 *341:107 *341:162 30.5884 
26 *341:162 *1970:B 20.5356 
27 *341:162 *341:189 23.9861 
28 *341:189 *1972:B 40.3193 
29 *341:189 *341:202 3.3887 
30 *341:202 *341:204 20 
31 *341:204 *1974:B 20 
32 *341:204 *1976:B 23.1724 
33 *341:202 *1978:B 42.575 
34 *341:25 *1950:B 20 
*END

*D_NET *342 0.0539149
*CONN
*I *1953:B I *D sg13g2_nor2_1
*I *1977:B I *D sg13g2_nor2_1
*I *1975:B I *D sg13g2_nor2_1
*I *1973:B I *D sg13g2_nor2_1
*I *1971:B I *D sg13g2_nor2_1
*I *1969:B I *D sg13g2_nor2_1
*I *1967:B I *D sg13g2_nor2_1
*I *1965:B I *D sg13g2_nor2_1
*I *1963:B I *D sg13g2_nor2_1
*I *1961:B I *D sg13g2_nor2_1
*I *1959:B I *D sg13g2_nor2_1
*I *1957:B I *D sg13g2_nor2_1
*I *1955:B I *D sg13g2_nor2_1
*I *1951:B I *D sg13g2_nor2_1
*I *1949:B I *D sg13g2_nor2_1
*I *1947:B I *D sg13g2_nor2_1
*I *1946:Y O *D sg13g2_nand2b_1
*CAP
1 *1953:B 0
2 *1977:B 0.000114703
3 *1975:B 5.40513e-05
4 *1973:B 6.61566e-05
5 *1971:B 3.8751e-05
6 *1969:B 3.84961e-05
7 *1967:B 0
8 *1965:B 0
9 *1963:B 0
10 *1961:B 0
11 *1959:B 0
12 *1957:B 0
13 *1955:B 0
14 *1951:B 6.42716e-05
15 *1949:B 6.84928e-05
16 *1947:B 0.000103022
17 *1946:Y 2.47712e-05
18 *342:167 0.00035563
19 *342:156 0.000423275
20 *342:141 0.000433027
21 *342:130 0.000429717
22 *342:119 0.000266071
23 *342:110 0.000265214
24 *342:101 0.000237138
25 *342:92 0.00025416
26 *342:83 0.000315645
27 *342:74 0.000367375
28 *342:65 0.000368745
29 *342:61 0.000295948
30 *342:46 0.000339159
31 *342:35 0.000454099
32 *342:18 0.00057225
33 *342:14 0.00320786
34 *342:12 0.00527904
35 *342:8 0.00229218
36 *342:12 *344:10 0
37 *342:14 *344:10 0.0134793
38 *342:18 *1981:B 0
39 *342:46 *344:40 0.000503208
40 *342:61 *344:40 0.000447349
41 *342:61 *344:53 0.000105719
42 *342:110 *344:115 0.000337804
43 *342:119 *344:115 0.000341226
44 output_no[110] *1975:B 8.00842e-05
45 *1947:A *1947:B 8.00842e-05
46 *1978:B *1977:B 0
47 *2004:A *342:141 0.00023464
48 *2004:A *342:156 6.62898e-05
49 *8:13 *342:14 0.00664105
50 *8:21 *342:12 2.22695e-05
51 *8:21 *342:14 0
52 *8:112 *342:14 0.00394918
53 *10:56 *342:12 0
54 *10:58 *342:12 0
55 *10:64 *342:12 0
56 *37:12 *1977:B 0.000234353
57 *37:12 *342:167 0.000393822
58 *158:14 *342:141 0
59 *158:14 *342:156 0.00027233
60 *307:110 *1947:B 4.77425e-05
61 *307:110 *342:18 0.000289774
62 *307:125 *342:35 0.000181608
63 *313:114 *342:74 7.3287e-05
64 *313:126 *342:65 0.000235556
65 *313:126 *342:74 0.000106045
66 *321:98 *342:101 0.000128663
67 *321:98 *342:110 0.000340789
68 *322:71 *342:35 0.000554077
69 *326:87 *342:130 7.33256e-05
70 *326:87 *342:141 0.000318279
71 *327:90 *342:130 0.00023547
72 *327:109 *342:156 0
73 *329:44 *342:12 2.19989e-05
74 *330:89 *342:65 0
75 *330:89 *342:74 0
76 *330:89 *342:83 0
77 *330:89 *342:92 0.000235556
78 *330:89 *342:101 0.000106807
79 *331:100 *342:35 0.000181201
80 *331:100 *342:46 0.000534043
81 *331:100 *342:61 0.000531387
82 *331:100 *342:65 0.000446216
83 *331:100 *342:74 0.000656165
84 *331:100 *342:83 0.000340877
85 *331:100 *342:92 0.00060794
86 *331:100 *342:101 0.000181279
87 *331:108 *342:101 0.00018211
88 *331:108 *342:110 0.000744055
89 *331:108 *342:119 0.000426331
90 *331:108 *342:130 0
91 *331:123 *342:167 0
92 *332:118 *1977:B 8.00842e-05
93 *333:98 *1977:B 0.00012816
94 *334:29 *342:12 0.00108891
95 *341:45 *342:61 8.00842e-05
96 *341:189 *342:156 0.000179357
97 *341:202 *342:156 0.00012816
98 *341:202 *342:167 0.000531565
*RES
1 *1946:Y *342:8 40.3193 
2 *342:8 *342:12 20.1365 
3 *342:12 *342:14 62.4592 
4 *342:14 *342:18 22.0497 
5 *342:18 *1947:B 21.1021 
6 *342:18 *342:35 23.7389 
7 *342:35 *1949:B 40.5356 
8 *342:35 *342:46 2.575 
9 *342:46 *1951:B 40.5356 
10 *342:46 *342:61 23.1106 
11 *342:61 *342:65 22.0806 
12 *342:65 *1955:B 40 
13 *342:65 *342:74 3.0694 
14 *342:74 *1957:B 40 
15 *342:74 *342:83 1.5862 
16 *342:83 *1959:B 40 
17 *342:83 *342:92 2.8222 
18 *342:92 *1961:B 40 
19 *342:92 *342:101 1.5862 
20 *342:101 *1963:B 40 
21 *342:101 *342:110 3.5638 
22 *342:110 *1965:B 40 
23 *342:110 *342:119 2.0806 
24 *342:119 *1967:B 40 
25 *342:119 *342:130 1.9055 
26 *342:130 *1969:B 40.3193 
27 *342:130 *342:141 2.575 
28 *342:141 *1971:B 40.3193 
29 *342:141 *342:156 2.5029 
30 *342:156 *1973:B 40.5356 
31 *342:156 *342:167 3.0694 
32 *342:167 *1975:B 40.5356 
33 *342:167 *1977:B 41.6274 
34 *342:61 *1953:B 20 
*END

*D_NET *343 0.0179922
*CONN
*I *2004:B I *D sg13g2_nand2_1
*I *1982:B I *D sg13g2_nand2_1
*I *1994:B I *D sg13g2_nand2_1
*I *1996:B I *D sg13g2_nand2b_1
*I *1992:B I *D sg13g2_nand2_1
*I *2008:B I *D sg13g2_nand2_1
*I *2010:B I *D sg13g2_nand2_1
*I *1990:B I *D sg13g2_nand2_1
*I *1988:B I *D sg13g2_nand2b_1
*I *2006:B I *D sg13g2_nand2_1
*I *1986:B I *D sg13g2_nand2_1
*I *1984:B I *D sg13g2_nand2_1
*I *2012:B I *D sg13g2_nand2_1
*I *2002:B I *D sg13g2_nand2_1
*I *2000:B I *D sg13g2_nand2_1
*I *1998:B I *D sg13g2_nand2_1
*I *1979:Y O *D sg13g2_nor3_1
*CAP
1 *2004:B 0
2 *1982:B 0
3 *1994:B 0.000215871
4 *1996:B 3.04198e-05
5 *1992:B 3.0239e-05
6 *2008:B 2.4412e-05
7 *2010:B 3.05732e-05
8 *1990:B 3.34444e-05
9 *1988:B 0
10 *2006:B 0.000208206
11 *1986:B 0
12 *1984:B 0
13 *2012:B 0
14 *2002:B 0
15 *2000:B 2.48096e-05
16 *1998:B 0.000296512
17 *1979:Y 0.000238309
18 *343:166 0.000308428
19 *343:153 0.000136123
20 *343:142 0.000112954
21 *343:131 0.000140004
22 *343:120 0.00034252
23 *343:109 0.000294698
24 *343:98 0.000327781
25 *343:89 0.000290378
26 *343:74 0.000311551
27 *343:65 0.000219067
28 *343:61 0.000533285
29 *343:47 0.00102645
30 *343:34 0.00100043
31 *343:10 0.000321322
32 *343:8 0.000616995
33 *1992:B *344:201 1.54008e-05
34 *343:8 *344:100 0.000395067
35 *343:47 *2003:B 0
36 *343:61 *2003:B 0
37 *343:65 *344:158 0.000234476
38 *343:74 *344:158 0.000211438
39 *343:89 *344:169 3.54419e-05
40 *343:98 *344:169 0.000160904
41 *343:109 *344:169 0.000107554
42 *343:120 *344:169 0.000321477
43 *343:120 *344:201 0.000234605
44 *343:131 *344:201 0.000127744
45 *343:142 *344:201 0.000211438
46 *343:153 *344:201 0.000211777
47 *343:166 *344:201 5.30319e-05
48 output_no[112] *343:61 7.98582e-05
49 output_no[118] *1994:B 0
50 output_o[116] *1990:B 4.77425e-05
51 *1974:A *343:47 1.54008e-05
52 *1974:A *343:61 8.00842e-05
53 *1988:A_N *2006:B 8.00842e-05
54 *2005:A *343:61 7.51285e-05
55 *2005:A *343:65 0.000125398
56 *2012:A *343:65 0.000340288
57 *34:10 *1998:B 1.54008e-05
58 *36:8 *343:34 7.57164e-05
59 *36:8 *343:47 0
60 *38:8 *2006:B 0.000143351
61 *151:8 *343:61 0.000288379
62 *153:10 *343:8 0
63 *153:10 *343:34 0
64 *153:10 *343:47 0.00119467
65 *154:16 *343:8 0.000926217
66 *154:16 *343:34 0
67 *158:18 *343:47 0.000447152
68 *312:132 *2006:B 0.000257081
69 *319:170 *1994:B 0.000128508
70 *319:170 *1996:B 4.77425e-05
71 *319:176 *343:166 7.51285e-05
72 *322:83 *343:8 0.000234727
73 *323:75 *1998:B 0.000240377
74 *323:75 *2000:B 4.77425e-05
75 *324:73 *343:34 0.000556238
76 *330:89 *343:61 2.20966e-05
77 *330:112 *343:61 0.00103268
78 *332:101 *343:61 0.000606376
79 *333:98 *343:65 0
80 *333:98 *343:89 0.000434745
81 *333:98 *343:98 0
82 *333:98 *343:120 0
83 *333:98 *343:131 0.000234324
84 *333:98 *343:142 0.000235075
85 *333:98 *343:153 0.000235147
86 *333:98 *343:166 0.000234224
*RES
1 *1979:Y *343:8 44.3054 
2 *343:8 *343:10 20 
3 *343:10 *1998:B 23.1003 
4 *343:10 *2000:B 20.3193 
5 *343:8 *343:34 4.1303 
6 *343:34 *2002:B 40 
7 *343:34 *343:47 27.8074 
8 *343:47 *343:61 46.7568 
9 *343:61 *343:65 22.0806 
10 *343:65 *2012:B 40 
11 *343:65 *343:74 1.0918 
12 *343:74 *1984:B 40 
13 *343:74 *343:89 2.8222 
14 *343:89 *1986:B 40 
15 *343:89 *343:98 0.8446 
16 *343:98 *2006:B 42.266 
17 *343:98 *343:109 0.5974 
18 *343:109 *1988:B 40 
19 *343:109 *343:120 2.8943 
20 *343:120 *1990:B 40.3193 
21 *343:120 *343:131 1.0918 
22 *343:131 *2010:B 40.3193 
23 *343:131 *343:142 1.0918 
24 *343:142 *2008:B 40.3193 
25 *343:142 *343:153 1.0918 
26 *343:153 *1992:B 40.3193 
27 *343:153 *343:166 21.0918 
28 *343:166 *1996:B 20.3193 
29 *343:166 *1994:B 22.0497 
30 *343:61 *1982:B 20 
31 *343:47 *2004:B 20 
*END

*D_NET *344 0.0610045
*CONN
*I *1999:B I *D sg13g2_nor2_1
*I *2001:B I *D sg13g2_nor2_1
*I *2005:B I *D sg13g2_nor2_1
*I *1995:B I *D sg13g2_nor2_1
*I *2009:B I *D sg13g2_nor2_1
*I *2007:B I *D sg13g2_nor2_1
*I *1987:B I *D sg13g2_nor2_1
*I *2011:B I *D sg13g2_nor2_1
*I *2003:B I *D sg13g2_nor2_1
*I *1997:B I *D sg13g2_nor2_1
*I *1993:B I *D sg13g2_nor2_1
*I *1991:B I *D sg13g2_nor2_1
*I *1989:B I *D sg13g2_nor2_1
*I *1985:B I *D sg13g2_nor2_1
*I *1983:B I *D sg13g2_nor2_1
*I *1981:B I *D sg13g2_nor2_1
*I *1980:Y O *D sg13g2_nand2b_1
*CAP
1 *1999:B 0
2 *2001:B 0.000148401
3 *2005:B 3.2047e-05
4 *1995:B 0.000147052
5 *2009:B 7.32173e-05
6 *2007:B 0.000368172
7 *1987:B 0
8 *2011:B 3.34444e-05
9 *2003:B 0.000439239
10 *1997:B 0
11 *1993:B 0
12 *1991:B 4.43025e-05
13 *1989:B 0.000104429
14 *1985:B 6.66932e-05
15 *1983:B 0
16 *1981:B 0.00025277
17 *1980:Y 2.61089e-05
18 *344:201 0.000791525
19 *344:173 0.000404694
20 *344:169 0.000801075
21 *344:158 0.000407446
22 *344:154 0.000724581
23 *344:137 0.00137098
24 *344:125 0.00104924
25 *344:115 0.000696086
26 *344:100 0.000880827
27 *344:83 0.000923454
28 *344:70 0.000513521
29 *344:53 0.000710161
30 *344:40 0.000834067
31 *344:27 0.000471637
32 *344:12 0.000377807
33 *344:10 0.00659023
34 *344:8 0.00658985
35 output_no[105] *344:100 8.00842e-05
36 output_no[105] *344:115 4.77425e-05
37 output_no[106] *344:115 4.77425e-05
38 output_no[106] *344:125 0.00030506
39 output_no[117] *344:201 0
40 output_no[126] *344:201 0.000553438
41 output_no[96] *1981:B 0
42 output_o[101] *1989:B 0
43 output_o[106] *344:125 0
44 output_o[114] *2011:B 4.77425e-05
45 output_o[118] *344:201 0.0001122
46 output_o[119] *1995:B 4.75166e-05
47 output_o[126] *1995:B 0.000235153
48 output_o[126] *344:201 7.51285e-05
49 output_o[96] *1981:B 0
50 *1949:A *344:40 0
51 *1950:A *344:40 0.000240377
52 *1957:A *1989:B 0.000112426
53 *1957:A *344:70 0.000208227
54 *1974:A *2003:B 0
55 *1990:A *2007:B 0
56 *1991:A *344:70 3.23417e-05
57 *1992:B *344:201 1.54008e-05
58 *2007:A *2007:B 0
59 *2011:A *344:154 0.000659812
60 *8:112 *344:10 0
61 *10:42 *344:10 0
62 *10:44 *344:10 0
63 *10:48 *344:10 0
64 *10:50 *344:10 0.000288675
65 *10:56 *344:10 0.00211508
66 *19:10 *344:125 0.000235055
67 *19:10 *344:137 0
68 *21:10 *344:137 0.00018211
69 *21:10 *344:154 0.000319765
70 *41:10 *1995:B 0
71 *41:10 *344:201 0
72 *153:8 *1981:B 0.000272834
73 *153:10 *344:27 0.000447533
74 *153:10 *344:70 0.000181192
75 *153:10 *344:83 0
76 *153:10 *344:100 0.000926631
77 *154:16 *344:70 0
78 *154:16 *344:83 0.000608941
79 *154:16 *344:100 0
80 *155:12 *1985:B 4.77425e-05
81 *157:8 *1989:B 4.77425e-05
82 *157:8 *344:70 0.000225168
83 *158:14 *344:115 0
84 *162:8 *344:115 1.54008e-05
85 *163:10 *344:125 0.000143351
86 *166:12 *344:154 4.75166e-05
87 *307:125 *1981:B 8.00842e-05
88 *315:102 *344:137 0
89 *315:108 *344:137 0.000257324
90 *315:108 *344:154 0.0014577
91 *316:72 *344:10 0
92 *316:72 *344:27 0.000500565
93 *316:72 *344:70 7.51285e-05
94 *320:107 *344:115 0.00012816
95 *321:98 *344:100 4.77425e-05
96 *322:71 *344:40 0.000930444
97 *322:71 *344:53 0.00103251
98 *327:90 *344:115 0.000392763
99 *331:100 *344:53 0
100 *331:112 *2003:B 8.00842e-05
101 *331:123 *2003:B 0.000176442
102 *332:101 *344:158 0.000657351
103 *332:101 *344:169 0.000799392
104 *332:101 *344:201 0.000318684
105 *335:82 *344:125 0.000661559
106 *335:82 *344:137 0.00032696
107 *335:82 *344:154 0
108 *341:45 *1985:B 0.000112426
109 *341:111 *344:100 8.00842e-05
110 *341:124 *344:100 0.000240377
111 *341:162 *2001:B 0.000208035
112 *341:162 *344:125 4.77425e-05
113 *341:162 *344:137 7.51285e-05
114 *342:12 *344:10 0
115 *342:14 *344:10 0.0134793
116 *342:18 *1981:B 0
117 *342:46 *344:40 0.000503208
118 *342:61 *344:40 0.000447349
119 *342:61 *344:53 0.000105719
120 *342:110 *344:115 0.000337804
121 *342:119 *344:115 0.000341226
122 *343:8 *344:100 0.000395067
123 *343:47 *2003:B 0
124 *343:61 *2003:B 0
125 *343:65 *344:158 0.000234476
126 *343:74 *344:158 0.000211438
127 *343:89 *344:169 3.54419e-05
128 *343:98 *344:169 0.000160904
129 *343:109 *344:169 0.000107554
130 *343:120 *344:169 0.000321477
131 *343:120 *344:201 0.000234605
132 *343:131 *344:201 0.000127744
133 *343:142 *344:201 0.000211438
134 *343:153 *344:201 0.000211777
135 *343:166 *344:201 5.30319e-05
*RES
1 *1980:Y *344:8 40.3193 
2 *344:8 *344:10 76.9822 
3 *344:10 *344:12 0.3193 
4 *344:12 *1981:B 42.6162 
5 *344:12 *344:27 22.3278 
6 *344:27 *1983:B 20 
7 *344:27 *344:40 26.2727 
8 *344:40 *1985:B 40.7519 
9 *344:40 *344:53 24.7998 
10 *344:53 *1989:B 21.1021 
11 *344:53 *344:70 22.781 
12 *344:70 *1991:B 40.3193 
13 *344:70 *344:83 3.1415 
14 *344:83 *1993:B 40 
15 *344:83 *344:100 28.3842 
16 *344:100 *1997:B 20 
17 *344:100 *344:115 43.708 
18 *344:115 *344:125 45.871 
19 *344:125 *344:137 25.15 
20 *344:137 *2003:B 44.1612 
21 *344:137 *344:154 27.9619 
22 *344:154 *344:158 23.0694 
23 *344:158 *2011:B 40.3193 
24 *344:158 *344:169 3.811 
25 *344:169 *344:173 20.3193 
26 *344:173 *1987:B 20 
27 *344:173 *2007:B 23.3578 
28 *344:169 *344:201 47.8074 
29 *344:201 *2009:B 40.7519 
30 *344:201 *1995:B 41.8437 
31 *344:154 *2005:B 20.3193 
32 *344:125 *2001:B 21.4008 
33 *344:115 *1999:B 20 
*END

*D_NET *345 0.0559695
*CONN
*I *2044:B I *D sg13g2_nand2_1
*I *2042:B I *D sg13g2_nand2_1
*I *2034:B I *D sg13g2_nand2_1
*I *2036:B I *D sg13g2_nand2_1
*I *2046:B I *D sg13g2_nand2_1
*I *2040:B I *D sg13g2_nand2_1
*I *2032:B I *D sg13g2_nand2_1
*I *2018:B I *D sg13g2_nand2_1
*I *2020:B I *D sg13g2_nand2_1
*I *2016:B I *D sg13g2_nand2_1
*I *2026:B I *D sg13g2_nand2_1
*I *2024:B I *D sg13g2_nand2_1
*I *2028:B I *D sg13g2_nand2_1
*I *2030:B I *D sg13g2_nand2b_1
*I *2022:B I *D sg13g2_nand2b_1
*I *2038:B I *D sg13g2_nand2_1
*I *2013:X O *D sg13g2_and3_1
*CAP
1 *2044:B 0
2 *2042:B 0.000439888
3 *2034:B 8.73648e-05
4 *2036:B 3.34444e-05
5 *2046:B 4.0251e-05
6 *2040:B 3.38102e-05
7 *2032:B 0
8 *2018:B 5.31478e-05
9 *2020:B 5.28976e-05
10 *2016:B 0
11 *2026:B 3.7009e-05
12 *2024:B 3.13955e-05
13 *2028:B 3.82423e-05
14 *2030:B 2.60565e-05
15 *2022:B 0.000112566
16 *2038:B 0
17 *2013:X 0.000117155
18 *345:101 0.000194172
19 *345:99 0.000295049
20 *345:97 0.000680896
21 *345:95 0.000691957
22 *345:84 0.00043161
23 *345:80 0.00050388
24 *345:74 0.00042689
25 *345:70 0.000898856
26 *345:64 0.000826738
27 *345:56 0.00161281
28 *345:54 0.00223771
29 *345:46 0.00172244
30 *345:38 0.00170386
31 *345:36 0.000967696
32 *345:34 0.000798583
33 *345:26 0.000859781
34 *345:20 0.00103735
35 *345:14 0.00191915
36 *345:8 0.00172501
37 *2018:B *2015:B 0
38 *2030:B *2029:B 4.77425e-05
39 *2042:B *2019:B 4.89645e-05
40 *345:14 *346:18 4.77702e-05
41 *345:34 *346:40 0
42 *345:36 *346:40 0
43 *345:36 *346:42 0
44 *345:38 *346:42 0
45 *345:38 *346:44 0
46 *345:38 *346:46 0
47 *345:46 *346:52 0.00123876
48 output_no[14] *2020:B 0
49 output_no[22] *345:64 8.00842e-05
50 output_no[37] *345:54 0.000143351
51 output_no[8] *2024:B 4.77425e-05
52 output_o[16] *345:70 0
53 output_o[23] *345:64 0
54 output_o[37] *345:54 0
55 output_o[47] *2036:B 4.77425e-05
56 output_o[50] *2042:B 0
57 output_o[51] *345:14 0
58 *1801:B *2040:B 1.54008e-05
59 *1804:A_N *345:38 0.000212872
60 *1816:A *345:34 0
61 *2022:A_N *2022:B 4.38923e-05
62 *2030:A_N *2030:B 4.77425e-05
63 *2041:A *2042:B 0.000208035
64 *11:8 *345:80 4.77425e-05
65 *50:16 *2022:B 0.000287256
66 *50:16 *345:74 0.000443067
67 *50:16 *345:80 0.00119169
68 *50:16 *345:84 0.000552371
69 *50:16 *345:95 0
70 *50:16 *345:97 0
71 *50:16 *345:99 0.000106064
72 *50:16 *345:101 0.000159096
73 *61:18 *2020:B 4.77425e-05
74 *139:8 *345:70 0
75 *184:10 *345:56 0.000341949
76 *266:10 *2042:B 0
77 *270:12 *345:46 0.000128247
78 *270:26 *345:54 0.00152982
79 *270:26 *345:56 0.00268623
80 *270:46 *345:38 0.000234727
81 *270:46 *345:46 0.000638874
82 *278:14 *345:38 0.00023464
83 *287:46 *345:38 0.000925301
84 *287:60 *345:54 0.000181279
85 *288:57 *345:46 0.000180952
86 *288:59 *345:46 0.000502289
87 *288:61 *345:46 0.000126358
88 *288:63 *345:46 0.000445791
89 *288:65 *345:46 0.000181608
90 *288:73 *345:46 0
91 *293:22 *345:54 0.000197041
92 *293:22 *345:56 0
93 *293:24 *345:56 0.00652289
94 *301:22 *345:56 0
95 *304:52 *345:34 0.000181071
96 *305:38 *345:14 0
97 *305:40 *345:14 0
98 *305:42 *345:14 0
99 *305:44 *345:14 0
100 *305:46 *345:14 0
101 *311:18 *2042:B 0
102 *312:20 *345:14 0
103 *312:46 *345:14 0
104 *312:166 *345:97 0
105 *312:166 *345:99 0
106 *312:185 *2022:B 7.51285e-05
107 *313:16 *345:56 0.00183564
108 *313:26 *345:70 0.00305991
109 *315:14 *2020:B 0
110 *315:14 *345:56 0
111 *315:14 *345:70 0.00311224
112 *315:18 *345:84 0
113 *315:18 *345:95 0.00034245
114 *318:22 *345:20 0.000746598
115 *318:22 *345:26 0.00109185
116 *319:49 *345:14 0.000182519
117 *319:64 *345:14 0.000876324
118 *320:45 *345:8 0
119 *322:12 *2034:B 0
120 *322:12 *345:34 0.000128039
121 *322:20 *345:26 7.9225e-05
122 *324:18 *345:20 0.000767865
123 *324:18 *345:26 0.00109126
124 *324:18 *345:34 0
125 *325:12 *2034:B 1.54008e-05
126 *326:12 *345:54 0
127 *326:12 *345:74 0.000422034
128 *326:12 *345:80 0.00120112
129 *326:27 *345:34 0
130 *326:27 *345:36 0
131 *326:27 *345:38 0
132 *326:27 *345:46 0
*RES
1 *2013:X *345:8 40.9682 
2 *345:8 *345:14 34.6981 
3 *345:14 *345:20 24.9646 
4 *345:20 *345:26 25.7989 
5 *345:26 *345:34 24.4496 
6 *345:34 *345:36 2.0806 
7 *345:36 *345:38 7.519 
8 *345:38 *345:46 33.1325 
9 *345:46 *345:54 28.7756 
10 *345:54 *345:56 30.5086 
11 *345:56 *345:64 40.8858 
12 *345:64 *345:70 35.8414 
13 *345:70 *345:74 22.0806 
14 *345:74 *345:80 26.077 
15 *345:80 *345:84 22.575 
16 *345:84 *2038:B 40 
17 *345:84 *345:95 2.3999 
18 *345:95 *345:97 4.0582 
19 *345:97 *345:99 2.0806 
20 *345:99 *345:101 0.8446 
21 *345:101 *2022:B 41.6583 
22 *345:101 *2030:B 40.3193 
23 *345:99 *2028:B 40.3193 
24 *345:97 *2024:B 40.3193 
25 *345:95 *2026:B 40.3193 
26 *345:80 *2016:B 20 
27 *345:74 *2020:B 40.5356 
28 *345:70 *2018:B 20.5356 
29 *345:46 *2032:B 20 
30 *345:38 *2040:B 40.3193 
31 *345:36 *2046:B 40.3193 
32 *345:34 *2036:B 40.3193 
33 *345:26 *2034:B 20.7519 
34 *345:20 *2042:B 43.9552 
35 *345:14 *2044:B 20 
*END

*D_NET *346 0.0420875
*CONN
*I *2043:B I *D sg13g2_nor2_1
*I *2019:B I *D sg13g2_nor2_1
*I *2041:B I *D sg13g2_nor2_1
*I *2017:B I *D sg13g2_nor2_1
*I *2033:B I *D sg13g2_nor2_1
*I *2035:B I *D sg13g2_nor2_1
*I *2045:B I *D sg13g2_nor2_1
*I *2027:B I *D sg13g2_nor2_1
*I *2025:B I *D sg13g2_nor2_1
*I *2039:B I *D sg13g2_nor2_1
*I *2031:B I *D sg13g2_nor2_1
*I *2015:B I *D sg13g2_nor2_1
*I *2037:B I *D sg13g2_nor2_1
*I *2023:B I *D sg13g2_nor2_1
*I *2029:B I *D sg13g2_nor2_1
*I *2021:B I *D sg13g2_nor2_1
*I *2014:Y O *D sg13g2_nand3_1
*CAP
1 *2043:B 5.99256e-05
2 *2019:B 6.14434e-05
3 *2041:B 5.60315e-05
4 *2017:B 4.87124e-05
5 *2033:B 4.44984e-05
6 *2035:B 4.88133e-05
7 *2045:B 2.45647e-05
8 *2027:B 2.60565e-05
9 *2025:B 3.74884e-05
10 *2039:B 0.000237798
11 *2031:B 0
12 *2015:B 8.23104e-05
13 *2037:B 5.19226e-05
14 *2023:B 5.63638e-05
15 *2029:B 0.000371517
16 *2021:B 0.000403057
17 *2014:Y 0
18 *346:80 0.00142057
19 *346:76 0.000939039
20 *346:72 0.000343304
21 *346:70 0.000793945
22 *346:64 0.000978715
23 *346:60 0.00600293
24 *346:58 0.00612607
25 *346:52 0.000767263
26 *346:46 0.00113527
27 *346:44 0.000560063
28 *346:42 0.000570438
29 *346:40 0.00110986
30 *346:34 0.000856729
31 *346:24 0.000297298
32 *346:22 0.000265913
33 *346:20 0.000284653
34 *346:18 0.00104242
35 *346:8 0.00204593
36 *346:6 0.00111432
37 output_no[15] *346:64 0
38 output_no[49] *2035:B 7.50789e-05
39 output_no[6] *2021:B 8.00764e-05
40 output_o[11] *2037:B 1.54008e-05
41 output_o[11] *346:72 7.92265e-05
42 output_o[45] *2027:B 4.77425e-05
43 output_o[51] *346:18 0
44 output_o[7] *2029:B 0
45 *1789:A *346:52 3.23417e-05
46 *1789:A *346:58 4.77425e-05
47 *1793:B *346:52 0.000156922
48 *1804:A_N *346:46 0.000235056
49 *1816:A *346:34 5.28477e-05
50 *1816:A *346:40 0.000604515
51 *1820:A *346:34 3.12974e-05
52 *1831:B *2043:B 4.77425e-05
53 *2018:B *2015:B 0
54 *2030:B *2029:B 4.77425e-05
55 *2030:A_N *2029:B 0
56 *2039:A *2039:B 0
57 *2042:B *2019:B 4.89645e-05
58 *11:20 *2021:B 0
59 *11:20 *346:70 0.000818318
60 *11:20 *346:76 0
61 *11:20 *346:80 0
62 *45:22 *346:70 7.33256e-05
63 *50:16 *346:70 0
64 *50:16 *346:76 0.000711753
65 *50:16 *346:80 0
66 *94:8 *346:72 0
67 *105:8 *2021:B 0
68 *105:8 *346:80 0
69 *139:8 *2015:B 7.92265e-05
70 *139:8 *346:64 7.9225e-05
71 *139:10 *346:70 0
72 *171:8 *2041:B 4.77425e-05
73 *178:6 *2017:B 4.77425e-05
74 *189:8 *346:18 7.33225e-05
75 *200:8 *2021:B 7.53228e-05
76 *210:10 *2033:B 8.00842e-05
77 *211:8 *2023:B 1.54008e-05
78 *233:8 *346:46 0
79 *255:16 *346:52 1.54008e-05
80 *266:10 *2017:B 8.00842e-05
81 *270:12 *346:52 0.00012816
82 *270:46 *346:46 0.000584597
83 *270:46 *346:52 0.000288173
84 *278:14 *346:42 0.000234224
85 *278:20 *346:60 0
86 *288:261 *2039:B 0
87 *299:14 *346:52 0.000234224
88 *299:36 *346:52 0.000105753
89 *300:10 *346:46 0.000234727
90 *300:10 *346:52 0.0005308
91 *300:16 *346:52 6.66935e-05
92 *300:22 *346:52 0
93 *301:10 *2039:B 0
94 *301:22 *346:60 0
95 *305:46 *346:18 0
96 *305:52 *346:18 0
97 *305:52 *346:20 0.000209452
98 *305:52 *346:22 0.000264718
99 *305:52 *346:24 0.000211438
100 *305:52 *346:34 7.46126e-05
101 *306:48 *346:8 0
102 *306:48 *346:18 0
103 *310:61 *346:18 0
104 *311:18 *346:18 0
105 *312:20 *346:18 0
106 *312:20 *346:20 0
107 *312:20 *346:22 0
108 *312:20 *346:34 0.000125292
109 *312:20 *346:40 0
110 *312:20 *346:42 0
111 *312:20 *346:46 0
112 *312:46 *346:8 0
113 *312:170 *2029:B 0
114 *313:16 *346:60 0
115 *315:14 *2015:B 0.000128765
116 *315:14 *346:60 0
117 *315:14 *346:64 0.00017625
118 *316:10 *346:42 0.000234224
119 *316:10 *346:44 0.00012816
120 *318:10 *2027:B 4.77425e-05
121 *319:14 *2029:B 1.54285e-05
122 *321:23 *346:8 0
123 *321:23 *346:18 0
124 *323:10 *2033:B 7.50789e-05
125 *326:12 *346:70 0.00183928
126 *328:14 *346:46 0
127 *333:18 *346:8 0.00279833
128 *345:14 *346:18 4.77702e-05
129 *345:34 *346:40 0
130 *345:36 *346:40 0
131 *345:36 *346:42 0
132 *345:38 *346:42 0
133 *345:38 *346:44 0
134 *345:38 *346:46 0
135 *345:46 *346:52 0.00123876
*RES
1 *2014:Y *346:6 40 
2 *346:6 *346:8 13.4518 
3 *346:8 *346:18 47.0195 
4 *346:18 *346:20 1.11755 
5 *346:20 *346:22 1.339 
6 *346:22 *346:24 1.0918 
7 *346:24 *346:34 1.9364 
8 *346:34 *346:40 6.2109 
9 *346:40 *346:42 4.3054 
10 *346:42 *346:44 1.0918 
11 *346:44 *346:46 5.047 
12 *346:46 *346:52 28.0855 
13 *346:52 *346:58 22.5853 
14 *346:58 *346:60 56.4646 
15 *346:60 *346:64 21.6171 
16 *346:64 *346:70 49.991 
17 *346:70 *346:72 0.5356 
18 *346:72 *346:76 23.3166 
19 *346:76 *346:80 5.1191 
20 *346:80 *2021:B 43.3269 
21 *346:80 *2029:B 43.2651 
22 *346:76 *2023:B 40.5356 
23 *346:72 *2037:B 20.5356 
24 *346:64 *2015:B 20.9682 
25 *346:52 *2031:B 20 
26 *346:46 *2039:B 42.0497 
27 *346:44 *2025:B 40.3193 
28 *346:42 *2027:B 40.3193 
29 *346:40 *2045:B 40.3193 
30 *346:34 *2035:B 40.5021 
31 *346:24 *2033:B 40.5356 
32 *346:22 *2017:B 40.5356 
33 *346:20 *2041:B 40.5356 
34 *346:18 *2019:B 40.5021 
35 *346:8 *2043:B 40.6386 
*END
