*SPEF "ieee 1481-1999"
*DESIGN "vdecoder"
*DATE "22:34:49 Wednesday August 27, 2025"
*VENDOR "The OpenROAD Project"
*PROGRAM "OpenROAD"
*VERSION "341650e72dad0dc8571822ff8c5d9c5e365327f7"
*DESIGN_FLOW "NAME_SCOPE LOCAL" "PIN_CAP NONE"
*DIVIDER /
*DELIMITER :
*BUS_DELIMITER []
*T_UNIT 1 NS
*C_UNIT 1 PF
*R_UNIT 1 OHM
*L_UNIT 1 HENRY

*NAME_MAP
*3 ena_i
*4 input_ni[0]
*5 input_ni[1]
*6 input_ni[2]
*7 input_ni[3]
*8 input_ni[4]
*9 input_ni[5]
*10 input_ni[6]
*11 output_no[0]
*12 output_no[100]
*13 output_no[101]
*14 output_no[102]
*15 output_no[103]
*16 output_no[104]
*17 output_no[105]
*18 output_no[106]
*19 output_no[107]
*20 output_no[108]
*21 output_no[109]
*22 output_no[10]
*23 output_no[110]
*24 output_no[111]
*25 output_no[112]
*26 output_no[113]
*27 output_no[114]
*28 output_no[115]
*29 output_no[116]
*30 output_no[117]
*31 output_no[118]
*32 output_no[119]
*33 output_no[11]
*34 output_no[120]
*35 output_no[121]
*36 output_no[122]
*37 output_no[123]
*38 output_no[124]
*39 output_no[125]
*40 output_no[126]
*41 output_no[127]
*42 output_no[12]
*43 output_no[13]
*44 output_no[14]
*45 output_no[15]
*46 output_no[16]
*47 output_no[17]
*48 output_no[18]
*49 output_no[19]
*50 output_no[1]
*51 output_no[20]
*52 output_no[21]
*53 output_no[22]
*54 output_no[23]
*55 output_no[24]
*56 output_no[25]
*57 output_no[26]
*58 output_no[27]
*59 output_no[28]
*60 output_no[29]
*61 output_no[2]
*62 output_no[30]
*63 output_no[31]
*64 output_no[32]
*65 output_no[33]
*66 output_no[34]
*67 output_no[35]
*68 output_no[36]
*69 output_no[37]
*70 output_no[38]
*71 output_no[39]
*72 output_no[3]
*73 output_no[40]
*74 output_no[41]
*75 output_no[42]
*76 output_no[43]
*77 output_no[44]
*78 output_no[45]
*79 output_no[46]
*80 output_no[47]
*81 output_no[48]
*82 output_no[49]
*83 output_no[4]
*84 output_no[50]
*85 output_no[51]
*86 output_no[52]
*87 output_no[53]
*88 output_no[54]
*89 output_no[55]
*90 output_no[56]
*91 output_no[57]
*92 output_no[58]
*93 output_no[59]
*94 output_no[5]
*95 output_no[60]
*96 output_no[61]
*97 output_no[62]
*98 output_no[63]
*99 output_no[64]
*100 output_no[65]
*101 output_no[66]
*102 output_no[67]
*103 output_no[68]
*104 output_no[69]
*105 output_no[6]
*106 output_no[70]
*107 output_no[71]
*108 output_no[72]
*109 output_no[73]
*110 output_no[74]
*111 output_no[75]
*112 output_no[76]
*113 output_no[77]
*114 output_no[78]
*115 output_no[79]
*116 output_no[7]
*117 output_no[80]
*118 output_no[81]
*119 output_no[82]
*120 output_no[83]
*121 output_no[84]
*122 output_no[85]
*123 output_no[86]
*124 output_no[87]
*125 output_no[88]
*126 output_no[89]
*127 output_no[8]
*128 output_no[90]
*129 output_no[91]
*130 output_no[92]
*131 output_no[93]
*132 output_no[94]
*133 output_no[95]
*134 output_no[96]
*135 output_no[97]
*136 output_no[98]
*137 output_no[99]
*138 output_no[9]
*139 output_o[0]
*140 output_o[100]
*141 output_o[101]
*142 output_o[102]
*143 output_o[103]
*144 output_o[104]
*145 output_o[105]
*146 output_o[106]
*147 output_o[107]
*148 output_o[108]
*149 output_o[109]
*150 output_o[10]
*151 output_o[110]
*152 output_o[111]
*153 output_o[112]
*154 output_o[113]
*155 output_o[114]
*156 output_o[115]
*157 output_o[116]
*158 output_o[117]
*159 output_o[118]
*160 output_o[119]
*161 output_o[11]
*162 output_o[120]
*163 output_o[121]
*164 output_o[122]
*165 output_o[123]
*166 output_o[124]
*167 output_o[125]
*168 output_o[126]
*169 output_o[127]
*170 output_o[12]
*171 output_o[13]
*172 output_o[14]
*173 output_o[15]
*174 output_o[16]
*175 output_o[17]
*176 output_o[18]
*177 output_o[19]
*178 output_o[1]
*179 output_o[20]
*180 output_o[21]
*181 output_o[22]
*182 output_o[23]
*183 output_o[24]
*184 output_o[25]
*185 output_o[26]
*186 output_o[27]
*187 output_o[28]
*188 output_o[29]
*189 output_o[2]
*190 output_o[30]
*191 output_o[31]
*192 output_o[32]
*193 output_o[33]
*194 output_o[34]
*195 output_o[35]
*196 output_o[36]
*197 output_o[37]
*198 output_o[38]
*199 output_o[39]
*200 output_o[3]
*201 output_o[40]
*202 output_o[41]
*203 output_o[42]
*204 output_o[43]
*205 output_o[44]
*206 output_o[45]
*207 output_o[46]
*208 output_o[47]
*209 output_o[48]
*210 output_o[49]
*211 output_o[4]
*212 output_o[50]
*213 output_o[51]
*214 output_o[52]
*215 output_o[53]
*216 output_o[54]
*217 output_o[55]
*218 output_o[56]
*219 output_o[57]
*220 output_o[58]
*221 output_o[59]
*222 output_o[5]
*223 output_o[60]
*224 output_o[61]
*225 output_o[62]
*226 output_o[63]
*227 output_o[64]
*228 output_o[65]
*229 output_o[66]
*230 output_o[67]
*231 output_o[68]
*232 output_o[69]
*233 output_o[6]
*234 output_o[70]
*235 output_o[71]
*236 output_o[72]
*237 output_o[73]
*238 output_o[74]
*239 output_o[75]
*240 output_o[76]
*241 output_o[77]
*242 output_o[78]
*243 output_o[79]
*244 output_o[7]
*245 output_o[80]
*246 output_o[81]
*247 output_o[82]
*248 output_o[83]
*249 output_o[84]
*250 output_o[85]
*251 output_o[86]
*252 output_o[87]
*253 output_o[88]
*254 output_o[89]
*255 output_o[8]
*256 output_o[90]
*257 output_o[91]
*258 output_o[92]
*259 output_o[93]
*260 output_o[94]
*261 output_o[95]
*262 output_o[96]
*263 output_o[97]
*264 output_o[98]
*265 output_o[99]
*266 output_o[9]
*267 _000_
*268 _001_
*269 _002_
*270 _003_
*271 _004_
*272 _005_
*273 _006_
*274 _007_
*275 _008_
*276 _009_
*277 _010_
*278 _011_
*279 _012_
*280 _013_
*281 _014_
*282 _015_
*283 _016_
*284 _017_
*285 _018_
*286 _019_
*287 _020_
*288 _021_
*289 _022_
*290 _023_
*291 _024_
*292 _025_
*293 _026_
*294 _027_
*295 _028_
*296 _029_
*297 _030_
*298 _031_
*299 _032_
*300 _033_
*301 _034_
*302 _035_
*303 _036_
*304 _037_
*305 _038_
*306 _039_
*307 _040_
*308 _041_
*309 _042_
*310 _043_
*311 _044_
*312 _045_
*313 _046_
*314 _047_
*315 _048_
*316 _049_
*317 _050_
*318 _051_
*319 _052_
*320 _053_
*321 _054_
*322 _055_
*323 _056_
*324 _057_
*325 _058_
*326 _059_
*327 _060_
*328 _061_
*329 _062_
*330 _063_
*331 _064_
*332 _065_
*333 _066_
*334 _067_
*335 _068_
*336 _069_
*337 _070_
*338 _071_
*339 _072_
*340 _073_
*341 _074_
*342 _075_
*343 _076_
*344 _077_
*345 _078_
*346 FILLER_0_0
*347 FILLER_0_14
*348 FILLER_0_21
*349 FILLER_0_28
*350 FILLER_0_35
*351 FILLER_0_42
*352 FILLER_0_49
*353 FILLER_0_56
*354 FILLER_0_63
*355 FILLER_0_7
*356 FILLER_0_70
*357 FILLER_100_0
*358 FILLER_100_14
*359 FILLER_100_21
*360 FILLER_100_28
*361 FILLER_100_35
*362 FILLER_100_42
*363 FILLER_100_49
*364 FILLER_100_56
*365 FILLER_100_58
*366 FILLER_100_67
*367 FILLER_100_7
*368 FILLER_101_0
*369 FILLER_101_14
*370 FILLER_101_21
*371 FILLER_101_28
*372 FILLER_101_35
*373 FILLER_101_42
*374 FILLER_101_49
*375 FILLER_101_56
*376 FILLER_101_58
*377 FILLER_101_67
*378 FILLER_101_7
*379 FILLER_102_0
*380 FILLER_102_14
*381 FILLER_102_21
*382 FILLER_102_28
*383 FILLER_102_35
*384 FILLER_102_42
*385 FILLER_102_49
*386 FILLER_102_56
*387 FILLER_102_58
*388 FILLER_102_67
*389 FILLER_102_7
*390 FILLER_103_0
*391 FILLER_103_14
*392 FILLER_103_21
*393 FILLER_103_28
*394 FILLER_103_35
*395 FILLER_103_42
*396 FILLER_103_49
*397 FILLER_103_56
*398 FILLER_103_63
*399 FILLER_103_7
*400 FILLER_103_70
*401 FILLER_104_0
*402 FILLER_104_14
*403 FILLER_104_21
*404 FILLER_104_28
*405 FILLER_104_35
*406 FILLER_104_42
*407 FILLER_104_49
*408 FILLER_104_56
*409 FILLER_104_58
*410 FILLER_104_67
*411 FILLER_104_7
*412 FILLER_105_0
*413 FILLER_105_14
*414 FILLER_105_21
*415 FILLER_105_28
*416 FILLER_105_35
*417 FILLER_105_42
*418 FILLER_105_49
*419 FILLER_105_56
*420 FILLER_105_58
*421 FILLER_105_67
*422 FILLER_105_7
*423 FILLER_106_0
*424 FILLER_106_14
*425 FILLER_106_21
*426 FILLER_106_28
*427 FILLER_106_35
*428 FILLER_106_42
*429 FILLER_106_49
*430 FILLER_106_56
*431 FILLER_106_67
*432 FILLER_106_7
*433 FILLER_107_0
*434 FILLER_107_14
*435 FILLER_107_21
*436 FILLER_107_28
*437 FILLER_107_35
*438 FILLER_107_42
*439 FILLER_107_49
*440 FILLER_107_56
*441 FILLER_107_67
*442 FILLER_107_7
*443 FILLER_108_0
*444 FILLER_108_14
*445 FILLER_108_21
*446 FILLER_108_28
*447 FILLER_108_35
*448 FILLER_108_42
*449 FILLER_108_49
*450 FILLER_108_56
*451 FILLER_108_58
*452 FILLER_108_67
*453 FILLER_108_7
*454 FILLER_109_0
*455 FILLER_109_14
*456 FILLER_109_21
*457 FILLER_109_28
*458 FILLER_109_35
*459 FILLER_109_42
*460 FILLER_109_49
*461 FILLER_109_56
*462 FILLER_109_58
*463 FILLER_109_67
*464 FILLER_109_7
*465 FILLER_10_0
*466 FILLER_10_14
*467 FILLER_10_21
*468 FILLER_10_28
*469 FILLER_10_35
*470 FILLER_10_42
*471 FILLER_10_49
*472 FILLER_10_56
*473 FILLER_10_63
*474 FILLER_10_7
*475 FILLER_10_70
*476 FILLER_110_0
*477 FILLER_110_14
*478 FILLER_110_21
*479 FILLER_110_28
*480 FILLER_110_35
*481 FILLER_110_42
*482 FILLER_110_49
*483 FILLER_110_56
*484 FILLER_110_58
*485 FILLER_110_67
*486 FILLER_110_7
*487 FILLER_111_0
*488 FILLER_111_14
*489 FILLER_111_21
*490 FILLER_111_28
*491 FILLER_111_35
*492 FILLER_111_42
*493 FILLER_111_49
*494 FILLER_111_56
*495 FILLER_111_58
*496 FILLER_111_67
*497 FILLER_111_7
*498 FILLER_112_0
*499 FILLER_112_14
*500 FILLER_112_21
*501 FILLER_112_28
*502 FILLER_112_35
*503 FILLER_112_42
*504 FILLER_112_49
*505 FILLER_112_56
*506 FILLER_112_63
*507 FILLER_112_7
*508 FILLER_112_70
*509 FILLER_113_0
*510 FILLER_113_14
*511 FILLER_113_21
*512 FILLER_113_28
*513 FILLER_113_35
*514 FILLER_113_42
*515 FILLER_113_49
*516 FILLER_113_56
*517 FILLER_113_61
*518 FILLER_113_7
*519 FILLER_114_0
*520 FILLER_114_14
*521 FILLER_114_21
*522 FILLER_114_28
*523 FILLER_114_35
*524 FILLER_114_42
*525 FILLER_114_49
*526 FILLER_114_56
*527 FILLER_114_58
*528 FILLER_114_67
*529 FILLER_114_7
*530 FILLER_115_0
*531 FILLER_115_14
*532 FILLER_115_21
*533 FILLER_115_28
*534 FILLER_115_35
*535 FILLER_115_42
*536 FILLER_115_49
*537 FILLER_115_56
*538 FILLER_115_63
*539 FILLER_115_7
*540 FILLER_115_70
*541 FILLER_116_0
*542 FILLER_116_14
*543 FILLER_116_21
*544 FILLER_116_28
*545 FILLER_116_35
*546 FILLER_116_42
*547 FILLER_116_49
*548 FILLER_116_56
*549 FILLER_116_58
*550 FILLER_116_67
*551 FILLER_116_7
*552 FILLER_117_0
*553 FILLER_117_14
*554 FILLER_117_21
*555 FILLER_117_28
*556 FILLER_117_35
*557 FILLER_117_42
*558 FILLER_117_49
*559 FILLER_117_56
*560 FILLER_117_58
*561 FILLER_117_67
*562 FILLER_117_7
*563 FILLER_118_0
*564 FILLER_118_14
*565 FILLER_118_21
*566 FILLER_118_28
*567 FILLER_118_35
*568 FILLER_118_42
*569 FILLER_118_49
*570 FILLER_118_56
*571 FILLER_118_58
*572 FILLER_118_67
*573 FILLER_118_7
*574 FILLER_119_0
*575 FILLER_119_14
*576 FILLER_119_21
*577 FILLER_119_28
*578 FILLER_119_35
*579 FILLER_119_42
*580 FILLER_119_49
*581 FILLER_119_56
*582 FILLER_119_63
*583 FILLER_119_7
*584 FILLER_119_70
*585 FILLER_11_0
*586 FILLER_11_14
*587 FILLER_11_21
*588 FILLER_11_28
*589 FILLER_11_35
*590 FILLER_11_42
*591 FILLER_11_49
*592 FILLER_11_56
*593 FILLER_11_63
*594 FILLER_11_7
*595 FILLER_11_70
*596 FILLER_120_0
*597 FILLER_120_14
*598 FILLER_120_21
*599 FILLER_120_28
*600 FILLER_120_35
*601 FILLER_120_42
*602 FILLER_120_49
*603 FILLER_120_56
*604 FILLER_120_58
*605 FILLER_120_67
*606 FILLER_120_7
*607 FILLER_121_0
*608 FILLER_121_14
*609 FILLER_121_21
*610 FILLER_121_28
*611 FILLER_121_35
*612 FILLER_121_42
*613 FILLER_121_49
*614 FILLER_121_56
*615 FILLER_121_58
*616 FILLER_121_67
*617 FILLER_121_7
*618 FILLER_122_0
*619 FILLER_122_14
*620 FILLER_122_21
*621 FILLER_122_28
*622 FILLER_122_35
*623 FILLER_122_42
*624 FILLER_122_49
*625 FILLER_122_56
*626 FILLER_122_67
*627 FILLER_122_7
*628 FILLER_123_0
*629 FILLER_123_14
*630 FILLER_123_21
*631 FILLER_123_28
*632 FILLER_123_35
*633 FILLER_123_42
*634 FILLER_123_49
*635 FILLER_123_56
*636 FILLER_123_67
*637 FILLER_123_7
*638 FILLER_124_0
*639 FILLER_124_14
*640 FILLER_124_21
*641 FILLER_124_28
*642 FILLER_124_35
*643 FILLER_124_42
*644 FILLER_124_49
*645 FILLER_124_56
*646 FILLER_124_58
*647 FILLER_124_67
*648 FILLER_124_7
*649 FILLER_125_0
*650 FILLER_125_14
*651 FILLER_125_21
*652 FILLER_125_28
*653 FILLER_125_35
*654 FILLER_125_42
*655 FILLER_125_49
*656 FILLER_125_56
*657 FILLER_125_58
*658 FILLER_125_67
*659 FILLER_125_7
*660 FILLER_126_0
*661 FILLER_126_14
*662 FILLER_126_21
*663 FILLER_126_28
*664 FILLER_126_35
*665 FILLER_126_42
*666 FILLER_126_49
*667 FILLER_126_56
*668 FILLER_126_58
*669 FILLER_126_67
*670 FILLER_126_7
*671 FILLER_127_0
*672 FILLER_127_14
*673 FILLER_127_21
*674 FILLER_127_28
*675 FILLER_127_35
*676 FILLER_127_42
*677 FILLER_127_49
*678 FILLER_127_56
*679 FILLER_127_63
*680 FILLER_127_7
*681 FILLER_127_70
*682 FILLER_128_0
*683 FILLER_128_14
*684 FILLER_128_21
*685 FILLER_128_28
*686 FILLER_128_35
*687 FILLER_128_42
*688 FILLER_128_49
*689 FILLER_128_56
*690 FILLER_128_58
*691 FILLER_128_67
*692 FILLER_128_7
*693 FILLER_129_0
*694 FILLER_129_14
*695 FILLER_129_21
*696 FILLER_129_28
*697 FILLER_129_35
*698 FILLER_129_42
*699 FILLER_129_49
*700 FILLER_129_56
*701 FILLER_129_58
*702 FILLER_129_67
*703 FILLER_129_7
*704 FILLER_12_0
*705 FILLER_12_14
*706 FILLER_12_21
*707 FILLER_12_28
*708 FILLER_12_35
*709 FILLER_12_42
*710 FILLER_12_49
*711 FILLER_12_56
*712 FILLER_12_63
*713 FILLER_12_7
*714 FILLER_12_70
*715 FILLER_130_0
*716 FILLER_130_14
*717 FILLER_130_21
*718 FILLER_130_28
*719 FILLER_130_35
*720 FILLER_130_42
*721 FILLER_130_49
*722 FILLER_130_56
*723 FILLER_130_58
*724 FILLER_130_67
*725 FILLER_130_7
*726 FILLER_131_0
*727 FILLER_131_14
*728 FILLER_131_21
*729 FILLER_131_28
*730 FILLER_131_35
*731 FILLER_131_42
*732 FILLER_131_49
*733 FILLER_131_56
*734 FILLER_131_67
*735 FILLER_131_7
*736 FILLER_132_0
*737 FILLER_132_14
*738 FILLER_132_21
*739 FILLER_132_28
*740 FILLER_132_35
*741 FILLER_132_42
*742 FILLER_132_49
*743 FILLER_132_56
*744 FILLER_132_58
*745 FILLER_132_7
*746 FILLER_133_0
*747 FILLER_133_14
*748 FILLER_133_21
*749 FILLER_133_28
*750 FILLER_133_35
*751 FILLER_133_42
*752 FILLER_133_49
*753 FILLER_133_56
*754 FILLER_133_63
*755 FILLER_133_7
*756 FILLER_133_70
*757 FILLER_134_0
*758 FILLER_134_14
*759 FILLER_134_21
*760 FILLER_134_28
*761 FILLER_134_35
*762 FILLER_134_42
*763 FILLER_134_49
*764 FILLER_134_56
*765 FILLER_134_61
*766 FILLER_134_67
*767 FILLER_134_7
*768 FILLER_135_0
*769 FILLER_135_14
*770 FILLER_135_21
*771 FILLER_135_28
*772 FILLER_135_35
*773 FILLER_135_42
*774 FILLER_135_49
*775 FILLER_135_56
*776 FILLER_135_67
*777 FILLER_135_7
*778 FILLER_136_0
*779 FILLER_136_14
*780 FILLER_136_21
*781 FILLER_136_28
*782 FILLER_136_35
*783 FILLER_136_42
*784 FILLER_136_49
*785 FILLER_136_56
*786 FILLER_136_58
*787 FILLER_136_67
*788 FILLER_136_7
*789 FILLER_137_0
*790 FILLER_137_14
*791 FILLER_137_21
*792 FILLER_137_28
*793 FILLER_137_35
*794 FILLER_137_42
*795 FILLER_137_49
*796 FILLER_137_56
*797 FILLER_137_58
*798 FILLER_137_67
*799 FILLER_137_7
*800 FILLER_138_0
*801 FILLER_138_14
*802 FILLER_138_21
*803 FILLER_138_28
*804 FILLER_138_35
*805 FILLER_138_42
*806 FILLER_138_49
*807 FILLER_138_56
*808 FILLER_138_58
*809 FILLER_138_67
*810 FILLER_138_7
*811 FILLER_139_0
*812 FILLER_139_14
*813 FILLER_139_21
*814 FILLER_139_28
*815 FILLER_139_35
*816 FILLER_139_42
*817 FILLER_139_49
*818 FILLER_139_56
*819 FILLER_139_63
*820 FILLER_139_7
*821 FILLER_139_70
*822 FILLER_13_0
*823 FILLER_13_14
*824 FILLER_13_21
*825 FILLER_13_28
*826 FILLER_13_35
*827 FILLER_13_42
*828 FILLER_13_49
*829 FILLER_13_56
*830 FILLER_13_63
*831 FILLER_13_7
*832 FILLER_13_70
*833 FILLER_140_0
*834 FILLER_140_14
*835 FILLER_140_21
*836 FILLER_140_28
*837 FILLER_140_35
*838 FILLER_140_42
*839 FILLER_140_49
*840 FILLER_140_56
*841 FILLER_140_62
*842 FILLER_140_7
*843 FILLER_141_0
*844 FILLER_141_14
*845 FILLER_141_21
*846 FILLER_141_28
*847 FILLER_141_35
*848 FILLER_141_42
*849 FILLER_141_49
*850 FILLER_141_56
*851 FILLER_141_58
*852 FILLER_141_67
*853 FILLER_141_7
*854 FILLER_142_0
*855 FILLER_142_14
*856 FILLER_142_21
*857 FILLER_142_28
*858 FILLER_142_35
*859 FILLER_142_42
*860 FILLER_142_49
*861 FILLER_142_53
*862 FILLER_142_7
*863 FILLER_143_0
*864 FILLER_143_14
*865 FILLER_143_21
*866 FILLER_143_28
*867 FILLER_143_35
*868 FILLER_143_42
*869 FILLER_143_49
*870 FILLER_143_56
*871 FILLER_143_67
*872 FILLER_143_7
*873 FILLER_144_0
*874 FILLER_144_14
*875 FILLER_144_21
*876 FILLER_144_28
*877 FILLER_144_35
*878 FILLER_144_42
*879 FILLER_144_49
*880 FILLER_144_56
*881 FILLER_144_58
*882 FILLER_144_7
*883 FILLER_145_0
*884 FILLER_145_14
*885 FILLER_145_21
*886 FILLER_145_28
*887 FILLER_145_35
*888 FILLER_145_42
*889 FILLER_145_49
*890 FILLER_145_56
*891 FILLER_145_58
*892 FILLER_145_7
*893 FILLER_146_0
*894 FILLER_146_14
*895 FILLER_146_21
*896 FILLER_146_28
*897 FILLER_146_35
*898 FILLER_146_42
*899 FILLER_146_49
*900 FILLER_146_56
*901 FILLER_146_58
*902 FILLER_146_7
*903 FILLER_147_0
*904 FILLER_147_14
*905 FILLER_147_21
*906 FILLER_147_28
*907 FILLER_147_35
*908 FILLER_147_42
*909 FILLER_147_49
*910 FILLER_147_56
*911 FILLER_147_58
*912 FILLER_147_7
*913 FILLER_148_0
*914 FILLER_148_14
*915 FILLER_148_21
*916 FILLER_148_28
*917 FILLER_148_35
*918 FILLER_148_42
*919 FILLER_148_49
*920 FILLER_148_56
*921 FILLER_148_58
*922 FILLER_148_7
*923 FILLER_149_0
*924 FILLER_149_14
*925 FILLER_149_21
*926 FILLER_149_28
*927 FILLER_149_35
*928 FILLER_149_42
*929 FILLER_149_49
*930 FILLER_149_56
*931 FILLER_149_58
*932 FILLER_149_7
*933 FILLER_14_0
*934 FILLER_14_14
*935 FILLER_14_21
*936 FILLER_14_28
*937 FILLER_14_35
*938 FILLER_14_42
*939 FILLER_14_49
*940 FILLER_14_56
*941 FILLER_14_63
*942 FILLER_14_7
*943 FILLER_14_70
*944 FILLER_150_0
*945 FILLER_150_14
*946 FILLER_150_21
*947 FILLER_150_28
*948 FILLER_150_35
*949 FILLER_150_42
*950 FILLER_150_49
*951 FILLER_150_56
*952 FILLER_150_58
*953 FILLER_150_7
*954 FILLER_151_0
*955 FILLER_151_14
*956 FILLER_151_21
*957 FILLER_151_28
*958 FILLER_151_35
*959 FILLER_151_42
*960 FILLER_151_49
*961 FILLER_151_56
*962 FILLER_151_58
*963 FILLER_151_7
*964 FILLER_152_0
*965 FILLER_152_14
*966 FILLER_152_21
*967 FILLER_152_28
*968 FILLER_152_35
*969 FILLER_152_42
*970 FILLER_152_49
*971 FILLER_152_56
*972 FILLER_152_58
*973 FILLER_152_7
*974 FILLER_153_0
*975 FILLER_153_14
*976 FILLER_153_21
*977 FILLER_153_28
*978 FILLER_153_35
*979 FILLER_153_42
*980 FILLER_153_49
*981 FILLER_153_56
*982 FILLER_153_58
*983 FILLER_153_7
*984 FILLER_154_0
*985 FILLER_154_14
*986 FILLER_154_21
*987 FILLER_154_28
*988 FILLER_154_35
*989 FILLER_154_42
*990 FILLER_154_49
*991 FILLER_154_56
*992 FILLER_154_58
*993 FILLER_154_7
*994 FILLER_155_0
*995 FILLER_155_14
*996 FILLER_155_21
*997 FILLER_155_28
*998 FILLER_155_35
*999 FILLER_155_42
*1000 FILLER_155_49
*1001 FILLER_155_56
*1002 FILLER_155_58
*1003 FILLER_155_7
*1004 FILLER_156_0
*1005 FILLER_156_14
*1006 FILLER_156_21
*1007 FILLER_156_28
*1008 FILLER_156_35
*1009 FILLER_156_42
*1010 FILLER_156_49
*1011 FILLER_156_56
*1012 FILLER_156_7
*1013 FILLER_157_0
*1014 FILLER_157_14
*1015 FILLER_157_21
*1016 FILLER_157_28
*1017 FILLER_157_35
*1018 FILLER_157_42
*1019 FILLER_157_49
*1020 FILLER_157_53
*1021 FILLER_157_7
*1022 FILLER_158_0
*1023 FILLER_158_14
*1024 FILLER_158_21
*1025 FILLER_158_28
*1026 FILLER_158_35
*1027 FILLER_158_42
*1028 FILLER_158_49
*1029 FILLER_158_56
*1030 FILLER_158_58
*1031 FILLER_158_67
*1032 FILLER_158_7
*1033 FILLER_159_0
*1034 FILLER_159_14
*1035 FILLER_159_21
*1036 FILLER_159_28
*1037 FILLER_159_35
*1038 FILLER_159_42
*1039 FILLER_159_49
*1040 FILLER_159_56
*1041 FILLER_159_58
*1042 FILLER_159_7
*1043 FILLER_15_0
*1044 FILLER_15_14
*1045 FILLER_15_21
*1046 FILLER_15_28
*1047 FILLER_15_35
*1048 FILLER_15_42
*1049 FILLER_15_49
*1050 FILLER_15_56
*1051 FILLER_15_63
*1052 FILLER_15_7
*1053 FILLER_15_70
*1054 FILLER_160_0
*1055 FILLER_160_14
*1056 FILLER_160_21
*1057 FILLER_160_28
*1058 FILLER_160_35
*1059 FILLER_160_42
*1060 FILLER_160_49
*1061 FILLER_160_56
*1062 FILLER_160_67
*1063 FILLER_160_7
*1064 FILLER_161_0
*1065 FILLER_161_14
*1066 FILLER_161_21
*1067 FILLER_161_28
*1068 FILLER_161_35
*1069 FILLER_161_42
*1070 FILLER_161_49
*1071 FILLER_161_56
*1072 FILLER_161_63
*1073 FILLER_161_7
*1074 FILLER_161_70
*1075 FILLER_162_0
*1076 FILLER_162_14
*1077 FILLER_162_21
*1078 FILLER_162_28
*1079 FILLER_162_35
*1080 FILLER_162_42
*1081 FILLER_162_49
*1082 FILLER_162_56
*1083 FILLER_162_63
*1084 FILLER_162_7
*1085 FILLER_162_70
*1086 FILLER_163_0
*1087 FILLER_163_14
*1088 FILLER_163_21
*1089 FILLER_163_28
*1090 FILLER_163_35
*1091 FILLER_163_42
*1092 FILLER_163_49
*1093 FILLER_163_56
*1094 FILLER_163_63
*1095 FILLER_163_7
*1096 FILLER_163_70
*1097 FILLER_164_0
*1098 FILLER_164_14
*1099 FILLER_164_21
*1100 FILLER_164_28
*1101 FILLER_164_35
*1102 FILLER_164_42
*1103 FILLER_164_49
*1104 FILLER_164_56
*1105 FILLER_164_63
*1106 FILLER_164_7
*1107 FILLER_164_70
*1108 FILLER_165_0
*1109 FILLER_165_14
*1110 FILLER_165_21
*1111 FILLER_165_28
*1112 FILLER_165_35
*1113 FILLER_165_42
*1114 FILLER_165_49
*1115 FILLER_165_56
*1116 FILLER_165_63
*1117 FILLER_165_7
*1118 FILLER_165_70
*1119 FILLER_166_0
*1120 FILLER_166_14
*1121 FILLER_166_21
*1122 FILLER_166_28
*1123 FILLER_166_35
*1124 FILLER_166_42
*1125 FILLER_166_49
*1126 FILLER_166_56
*1127 FILLER_166_63
*1128 FILLER_166_7
*1129 FILLER_166_70
*1130 FILLER_167_0
*1131 FILLER_167_14
*1132 FILLER_167_21
*1133 FILLER_167_28
*1134 FILLER_167_35
*1135 FILLER_167_42
*1136 FILLER_167_49
*1137 FILLER_167_56
*1138 FILLER_167_63
*1139 FILLER_167_7
*1140 FILLER_167_70
*1141 FILLER_168_0
*1142 FILLER_168_14
*1143 FILLER_168_21
*1144 FILLER_168_28
*1145 FILLER_168_35
*1146 FILLER_168_42
*1147 FILLER_168_49
*1148 FILLER_168_56
*1149 FILLER_168_63
*1150 FILLER_168_7
*1151 FILLER_168_70
*1152 FILLER_169_0
*1153 FILLER_169_14
*1154 FILLER_169_21
*1155 FILLER_169_28
*1156 FILLER_169_35
*1157 FILLER_169_42
*1158 FILLER_169_49
*1159 FILLER_169_56
*1160 FILLER_169_63
*1161 FILLER_169_7
*1162 FILLER_169_70
*1163 FILLER_16_0
*1164 FILLER_16_14
*1165 FILLER_16_21
*1166 FILLER_16_28
*1167 FILLER_16_35
*1168 FILLER_16_42
*1169 FILLER_16_49
*1170 FILLER_16_56
*1171 FILLER_16_63
*1172 FILLER_16_7
*1173 FILLER_16_70
*1174 FILLER_170_0
*1175 FILLER_170_14
*1176 FILLER_170_21
*1177 FILLER_170_28
*1178 FILLER_170_35
*1179 FILLER_170_42
*1180 FILLER_170_49
*1181 FILLER_170_56
*1182 FILLER_170_63
*1183 FILLER_170_7
*1184 FILLER_170_70
*1185 FILLER_171_0
*1186 FILLER_171_14
*1187 FILLER_171_21
*1188 FILLER_171_28
*1189 FILLER_171_35
*1190 FILLER_171_42
*1191 FILLER_171_49
*1192 FILLER_171_56
*1193 FILLER_171_63
*1194 FILLER_171_7
*1195 FILLER_171_70
*1196 FILLER_172_0
*1197 FILLER_172_14
*1198 FILLER_172_21
*1199 FILLER_172_28
*1200 FILLER_172_35
*1201 FILLER_172_42
*1202 FILLER_172_49
*1203 FILLER_172_56
*1204 FILLER_172_63
*1205 FILLER_172_7
*1206 FILLER_172_70
*1207 FILLER_173_0
*1208 FILLER_173_14
*1209 FILLER_173_21
*1210 FILLER_173_28
*1211 FILLER_173_35
*1212 FILLER_173_42
*1213 FILLER_173_49
*1214 FILLER_173_56
*1215 FILLER_173_63
*1216 FILLER_173_7
*1217 FILLER_173_70
*1218 FILLER_174_0
*1219 FILLER_174_14
*1220 FILLER_174_21
*1221 FILLER_174_28
*1222 FILLER_174_35
*1223 FILLER_174_42
*1224 FILLER_174_49
*1225 FILLER_174_56
*1226 FILLER_174_63
*1227 FILLER_174_7
*1228 FILLER_174_70
*1229 FILLER_175_0
*1230 FILLER_175_14
*1231 FILLER_175_21
*1232 FILLER_175_28
*1233 FILLER_175_35
*1234 FILLER_175_42
*1235 FILLER_175_49
*1236 FILLER_175_56
*1237 FILLER_175_63
*1238 FILLER_175_7
*1239 FILLER_175_70
*1240 FILLER_176_0
*1241 FILLER_176_14
*1242 FILLER_176_21
*1243 FILLER_176_28
*1244 FILLER_176_35
*1245 FILLER_176_42
*1246 FILLER_176_49
*1247 FILLER_176_56
*1248 FILLER_176_63
*1249 FILLER_176_7
*1250 FILLER_176_70
*1251 FILLER_177_0
*1252 FILLER_177_14
*1253 FILLER_177_21
*1254 FILLER_177_28
*1255 FILLER_177_35
*1256 FILLER_177_42
*1257 FILLER_177_49
*1258 FILLER_177_56
*1259 FILLER_177_63
*1260 FILLER_177_7
*1261 FILLER_177_70
*1262 FILLER_178_0
*1263 FILLER_178_14
*1264 FILLER_178_21
*1265 FILLER_178_28
*1266 FILLER_178_35
*1267 FILLER_178_42
*1268 FILLER_178_49
*1269 FILLER_178_56
*1270 FILLER_178_63
*1271 FILLER_178_7
*1272 FILLER_178_70
*1273 FILLER_179_0
*1274 FILLER_179_14
*1275 FILLER_179_21
*1276 FILLER_179_28
*1277 FILLER_179_35
*1278 FILLER_179_42
*1279 FILLER_179_49
*1280 FILLER_179_56
*1281 FILLER_179_63
*1282 FILLER_179_7
*1283 FILLER_179_70
*1284 FILLER_17_0
*1285 FILLER_17_14
*1286 FILLER_17_21
*1287 FILLER_17_28
*1288 FILLER_17_35
*1289 FILLER_17_42
*1290 FILLER_17_49
*1291 FILLER_17_56
*1292 FILLER_17_63
*1293 FILLER_17_7
*1294 FILLER_17_70
*1295 FILLER_180_0
*1296 FILLER_180_14
*1297 FILLER_180_21
*1298 FILLER_180_28
*1299 FILLER_180_35
*1300 FILLER_180_42
*1301 FILLER_180_49
*1302 FILLER_180_56
*1303 FILLER_180_63
*1304 FILLER_180_7
*1305 FILLER_180_70
*1306 FILLER_181_0
*1307 FILLER_181_14
*1308 FILLER_181_21
*1309 FILLER_181_28
*1310 FILLER_181_35
*1311 FILLER_181_42
*1312 FILLER_181_49
*1313 FILLER_181_56
*1314 FILLER_181_63
*1315 FILLER_181_7
*1316 FILLER_181_70
*1317 FILLER_182_0
*1318 FILLER_182_14
*1319 FILLER_182_21
*1320 FILLER_182_28
*1321 FILLER_182_35
*1322 FILLER_182_42
*1323 FILLER_182_49
*1324 FILLER_182_56
*1325 FILLER_182_63
*1326 FILLER_182_7
*1327 FILLER_182_70
*1328 FILLER_18_0
*1329 FILLER_18_14
*1330 FILLER_18_21
*1331 FILLER_18_28
*1332 FILLER_18_35
*1333 FILLER_18_42
*1334 FILLER_18_49
*1335 FILLER_18_56
*1336 FILLER_18_63
*1337 FILLER_18_7
*1338 FILLER_18_70
*1339 FILLER_19_0
*1340 FILLER_19_14
*1341 FILLER_19_21
*1342 FILLER_19_28
*1343 FILLER_19_35
*1344 FILLER_19_42
*1345 FILLER_19_49
*1346 FILLER_19_56
*1347 FILLER_19_63
*1348 FILLER_19_7
*1349 FILLER_19_70
*1350 FILLER_1_0
*1351 FILLER_1_14
*1352 FILLER_1_21
*1353 FILLER_1_28
*1354 FILLER_1_35
*1355 FILLER_1_42
*1356 FILLER_1_49
*1357 FILLER_1_56
*1358 FILLER_1_63
*1359 FILLER_1_7
*1360 FILLER_1_70
*1361 FILLER_20_0
*1362 FILLER_20_14
*1363 FILLER_20_21
*1364 FILLER_20_28
*1365 FILLER_20_35
*1366 FILLER_20_42
*1367 FILLER_20_49
*1368 FILLER_20_56
*1369 FILLER_20_63
*1370 FILLER_20_7
*1371 FILLER_20_70
*1372 FILLER_21_0
*1373 FILLER_21_14
*1374 FILLER_21_21
*1375 FILLER_21_28
*1376 FILLER_21_35
*1377 FILLER_21_42
*1378 FILLER_21_49
*1379 FILLER_21_56
*1380 FILLER_21_63
*1381 FILLER_21_7
*1382 FILLER_21_70
*1383 FILLER_22_0
*1384 FILLER_22_14
*1385 FILLER_22_21
*1386 FILLER_22_28
*1387 FILLER_22_35
*1388 FILLER_22_42
*1389 FILLER_22_49
*1390 FILLER_22_56
*1391 FILLER_22_63
*1392 FILLER_22_7
*1393 FILLER_22_70
*1394 FILLER_23_0
*1395 FILLER_23_14
*1396 FILLER_23_21
*1397 FILLER_23_28
*1398 FILLER_23_35
*1399 FILLER_23_42
*1400 FILLER_23_49
*1401 FILLER_23_56
*1402 FILLER_23_63
*1403 FILLER_23_7
*1404 FILLER_23_70
*1405 FILLER_24_0
*1406 FILLER_24_14
*1407 FILLER_24_21
*1408 FILLER_24_28
*1409 FILLER_24_35
*1410 FILLER_24_42
*1411 FILLER_24_49
*1412 FILLER_24_56
*1413 FILLER_24_63
*1414 FILLER_24_7
*1415 FILLER_24_70
*1416 FILLER_25_0
*1417 FILLER_25_14
*1418 FILLER_25_21
*1419 FILLER_25_28
*1420 FILLER_25_35
*1421 FILLER_25_42
*1422 FILLER_25_49
*1423 FILLER_25_56
*1424 FILLER_25_63
*1425 FILLER_25_7
*1426 FILLER_25_70
*1427 FILLER_26_0
*1428 FILLER_26_14
*1429 FILLER_26_21
*1430 FILLER_26_28
*1431 FILLER_26_35
*1432 FILLER_26_42
*1433 FILLER_26_49
*1434 FILLER_26_56
*1435 FILLER_26_63
*1436 FILLER_26_7
*1437 FILLER_26_70
*1438 FILLER_27_0
*1439 FILLER_27_14
*1440 FILLER_27_21
*1441 FILLER_27_28
*1442 FILLER_27_35
*1443 FILLER_27_42
*1444 FILLER_27_49
*1445 FILLER_27_56
*1446 FILLER_27_58
*1447 FILLER_27_67
*1448 FILLER_27_7
*1449 FILLER_28_0
*1450 FILLER_28_14
*1451 FILLER_28_21
*1452 FILLER_28_28
*1453 FILLER_28_35
*1454 FILLER_28_42
*1455 FILLER_28_49
*1456 FILLER_28_56
*1457 FILLER_28_58
*1458 FILLER_28_7
*1459 FILLER_29_0
*1460 FILLER_29_14
*1461 FILLER_29_21
*1462 FILLER_29_28
*1463 FILLER_29_35
*1464 FILLER_29_42
*1465 FILLER_29_49
*1466 FILLER_29_56
*1467 FILLER_29_63
*1468 FILLER_29_7
*1469 FILLER_29_70
*1470 FILLER_2_0
*1471 FILLER_2_14
*1472 FILLER_2_21
*1473 FILLER_2_28
*1474 FILLER_2_35
*1475 FILLER_2_42
*1476 FILLER_2_49
*1477 FILLER_2_56
*1478 FILLER_2_63
*1479 FILLER_2_7
*1480 FILLER_2_70
*1481 FILLER_30_0
*1482 FILLER_30_14
*1483 FILLER_30_21
*1484 FILLER_30_28
*1485 FILLER_30_35
*1486 FILLER_30_42
*1487 FILLER_30_49
*1488 FILLER_30_56
*1489 FILLER_30_7
*1490 FILLER_31_0
*1491 FILLER_31_14
*1492 FILLER_31_21
*1493 FILLER_31_28
*1494 FILLER_31_35
*1495 FILLER_31_42
*1496 FILLER_31_46
*1497 FILLER_31_52
*1498 FILLER_31_58
*1499 FILLER_31_7
*1500 FILLER_32_0
*1501 FILLER_32_14
*1502 FILLER_32_21
*1503 FILLER_32_28
*1504 FILLER_32_35
*1505 FILLER_32_42
*1506 FILLER_32_49
*1507 FILLER_32_56
*1508 FILLER_32_60
*1509 FILLER_32_7
*1510 FILLER_33_0
*1511 FILLER_33_14
*1512 FILLER_33_21
*1513 FILLER_33_28
*1514 FILLER_33_35
*1515 FILLER_33_42
*1516 FILLER_33_46
*1517 FILLER_33_52
*1518 FILLER_33_59
*1519 FILLER_33_61
*1520 FILLER_33_7
*1521 FILLER_34_0
*1522 FILLER_34_14
*1523 FILLER_34_21
*1524 FILLER_34_28
*1525 FILLER_34_35
*1526 FILLER_34_37
*1527 FILLER_34_43
*1528 FILLER_34_63
*1529 FILLER_34_7
*1530 FILLER_34_70
*1531 FILLER_35_0
*1532 FILLER_35_14
*1533 FILLER_35_21
*1534 FILLER_35_28
*1535 FILLER_35_35
*1536 FILLER_35_42
*1537 FILLER_35_49
*1538 FILLER_35_56
*1539 FILLER_35_60
*1540 FILLER_35_67
*1541 FILLER_35_7
*1542 FILLER_36_0
*1543 FILLER_36_14
*1544 FILLER_36_21
*1545 FILLER_36_28
*1546 FILLER_36_35
*1547 FILLER_36_42
*1548 FILLER_36_48
*1549 FILLER_36_55
*1550 FILLER_36_67
*1551 FILLER_36_7
*1552 FILLER_37_0
*1553 FILLER_37_14
*1554 FILLER_37_21
*1555 FILLER_37_28
*1556 FILLER_37_35
*1557 FILLER_37_42
*1558 FILLER_37_44
*1559 FILLER_37_57
*1560 FILLER_37_64
*1561 FILLER_37_7
*1562 FILLER_38_0
*1563 FILLER_38_14
*1564 FILLER_38_21
*1565 FILLER_38_28
*1566 FILLER_38_35
*1567 FILLER_38_42
*1568 FILLER_38_49
*1569 FILLER_38_56
*1570 FILLER_38_60
*1571 FILLER_38_7
*1572 FILLER_39_0
*1573 FILLER_39_14
*1574 FILLER_39_21
*1575 FILLER_39_28
*1576 FILLER_39_35
*1577 FILLER_39_42
*1578 FILLER_39_56
*1579 FILLER_39_58
*1580 FILLER_39_7
*1581 FILLER_3_0
*1582 FILLER_3_14
*1583 FILLER_3_21
*1584 FILLER_3_28
*1585 FILLER_3_35
*1586 FILLER_3_42
*1587 FILLER_3_49
*1588 FILLER_3_56
*1589 FILLER_3_63
*1590 FILLER_3_7
*1591 FILLER_3_70
*1592 FILLER_40_0
*1593 FILLER_40_14
*1594 FILLER_40_21
*1595 FILLER_40_28
*1596 FILLER_40_35
*1597 FILLER_40_42
*1598 FILLER_40_49
*1599 FILLER_40_55
*1600 FILLER_40_62
*1601 FILLER_40_67
*1602 FILLER_40_7
*1603 FILLER_41_0
*1604 FILLER_41_14
*1605 FILLER_41_21
*1606 FILLER_41_28
*1607 FILLER_41_35
*1608 FILLER_41_42
*1609 FILLER_41_46
*1610 FILLER_41_53
*1611 FILLER_41_60
*1612 FILLER_41_66
*1613 FILLER_41_7
*1614 FILLER_41_70
*1615 FILLER_42_0
*1616 FILLER_42_14
*1617 FILLER_42_21
*1618 FILLER_42_28
*1619 FILLER_42_35
*1620 FILLER_42_42
*1621 FILLER_42_58
*1622 FILLER_42_62
*1623 FILLER_42_67
*1624 FILLER_42_7
*1625 FILLER_43_0
*1626 FILLER_43_14
*1627 FILLER_43_21
*1628 FILLER_43_28
*1629 FILLER_43_35
*1630 FILLER_43_42
*1631 FILLER_43_49
*1632 FILLER_43_56
*1633 FILLER_43_58
*1634 FILLER_43_67
*1635 FILLER_43_7
*1636 FILLER_44_0
*1637 FILLER_44_14
*1638 FILLER_44_21
*1639 FILLER_44_28
*1640 FILLER_44_35
*1641 FILLER_44_45
*1642 FILLER_44_57
*1643 FILLER_44_61
*1644 FILLER_44_7
*1645 FILLER_45_0
*1646 FILLER_45_14
*1647 FILLER_45_21
*1648 FILLER_45_28
*1649 FILLER_45_32
*1650 FILLER_45_39
*1651 FILLER_45_41
*1652 FILLER_45_50
*1653 FILLER_45_58
*1654 FILLER_45_65
*1655 FILLER_45_69
*1656 FILLER_45_7
*1657 FILLER_46_0
*1658 FILLER_46_14
*1659 FILLER_46_21
*1660 FILLER_46_28
*1661 FILLER_46_32
*1662 FILLER_46_40
*1663 FILLER_46_47
*1664 FILLER_46_54
*1665 FILLER_46_61
*1666 FILLER_46_7
*1667 FILLER_47_0
*1668 FILLER_47_14
*1669 FILLER_47_21
*1670 FILLER_47_28
*1671 FILLER_47_35
*1672 FILLER_47_37
*1673 FILLER_47_42
*1674 FILLER_47_49
*1675 FILLER_47_51
*1676 FILLER_47_57
*1677 FILLER_47_61
*1678 FILLER_47_7
*1679 FILLER_48_0
*1680 FILLER_48_14
*1681 FILLER_48_21
*1682 FILLER_48_28
*1683 FILLER_48_35
*1684 FILLER_48_42
*1685 FILLER_48_44
*1686 FILLER_48_60
*1687 FILLER_48_62
*1688 FILLER_48_67
*1689 FILLER_48_7
*1690 FILLER_49_0
*1691 FILLER_49_14
*1692 FILLER_49_21
*1693 FILLER_49_28
*1694 FILLER_49_30
*1695 FILLER_49_41
*1696 FILLER_49_47
*1697 FILLER_49_54
*1698 FILLER_49_58
*1699 FILLER_49_63
*1700 FILLER_49_7
*1701 FILLER_49_70
*1702 FILLER_4_0
*1703 FILLER_4_14
*1704 FILLER_4_21
*1705 FILLER_4_28
*1706 FILLER_4_35
*1707 FILLER_4_42
*1708 FILLER_4_49
*1709 FILLER_4_56
*1710 FILLER_4_63
*1711 FILLER_4_7
*1712 FILLER_4_70
*1713 FILLER_50_0
*1714 FILLER_50_14
*1715 FILLER_50_21
*1716 FILLER_50_28
*1717 FILLER_50_42
*1718 FILLER_50_49
*1719 FILLER_50_56
*1720 FILLER_50_60
*1721 FILLER_50_7
*1722 FILLER_50_70
*1723 FILLER_51_0
*1724 FILLER_51_14
*1725 FILLER_51_21
*1726 FILLER_51_28
*1727 FILLER_51_49
*1728 FILLER_51_55
*1729 FILLER_51_62
*1730 FILLER_51_69
*1731 FILLER_51_7
*1732 FILLER_52_0
*1733 FILLER_52_14
*1734 FILLER_52_21
*1735 FILLER_52_28
*1736 FILLER_52_32
*1737 FILLER_52_38
*1738 FILLER_52_45
*1739 FILLER_52_52
*1740 FILLER_52_67
*1741 FILLER_52_7
*1742 FILLER_53_0
*1743 FILLER_53_14
*1744 FILLER_53_21
*1745 FILLER_53_28
*1746 FILLER_53_35
*1747 FILLER_53_42
*1748 FILLER_53_59
*1749 FILLER_53_67
*1750 FILLER_53_7
*1751 FILLER_54_0
*1752 FILLER_54_14
*1753 FILLER_54_21
*1754 FILLER_54_28
*1755 FILLER_54_35
*1756 FILLER_54_42
*1757 FILLER_54_49
*1758 FILLER_54_56
*1759 FILLER_54_58
*1760 FILLER_54_68
*1761 FILLER_54_7
*1762 FILLER_54_70
*1763 FILLER_55_0
*1764 FILLER_55_14
*1765 FILLER_55_21
*1766 FILLER_55_28
*1767 FILLER_55_32
*1768 FILLER_55_38
*1769 FILLER_55_46
*1770 FILLER_55_53
*1771 FILLER_55_57
*1772 FILLER_55_67
*1773 FILLER_55_7
*1774 FILLER_56_0
*1775 FILLER_56_14
*1776 FILLER_56_21
*1777 FILLER_56_28
*1778 FILLER_56_35
*1779 FILLER_56_49
*1780 FILLER_56_7
*1781 FILLER_56_70
*1782 FILLER_57_0
*1783 FILLER_57_14
*1784 FILLER_57_21
*1785 FILLER_57_28
*1786 FILLER_57_35
*1787 FILLER_57_39
*1788 FILLER_57_45
*1789 FILLER_57_52
*1790 FILLER_57_59
*1791 FILLER_57_66
*1792 FILLER_57_7
*1793 FILLER_57_70
*1794 FILLER_58_0
*1795 FILLER_58_14
*1796 FILLER_58_21
*1797 FILLER_58_28
*1798 FILLER_58_35
*1799 FILLER_58_39
*1800 FILLER_58_45
*1801 FILLER_58_52
*1802 FILLER_58_67
*1803 FILLER_58_7
*1804 FILLER_59_0
*1805 FILLER_59_14
*1806 FILLER_59_21
*1807 FILLER_59_28
*1808 FILLER_59_32
*1809 FILLER_59_48
*1810 FILLER_59_57
*1811 FILLER_59_61
*1812 FILLER_59_67
*1813 FILLER_59_7
*1814 FILLER_5_0
*1815 FILLER_5_14
*1816 FILLER_5_21
*1817 FILLER_5_28
*1818 FILLER_5_35
*1819 FILLER_5_42
*1820 FILLER_5_49
*1821 FILLER_5_56
*1822 FILLER_5_63
*1823 FILLER_5_7
*1824 FILLER_5_70
*1825 FILLER_60_0
*1826 FILLER_60_14
*1827 FILLER_60_21
*1828 FILLER_60_28
*1829 FILLER_60_35
*1830 FILLER_60_42
*1831 FILLER_60_49
*1832 FILLER_60_56
*1833 FILLER_60_60
*1834 FILLER_60_67
*1835 FILLER_60_7
*1836 FILLER_61_0
*1837 FILLER_61_14
*1838 FILLER_61_21
*1839 FILLER_61_28
*1840 FILLER_61_40
*1841 FILLER_61_47
*1842 FILLER_61_56
*1843 FILLER_61_60
*1844 FILLER_61_7
*1845 FILLER_61_70
*1846 FILLER_62_0
*1847 FILLER_62_14
*1848 FILLER_62_21
*1849 FILLER_62_28
*1850 FILLER_62_35
*1851 FILLER_62_46
*1852 FILLER_62_57
*1853 FILLER_62_67
*1854 FILLER_62_7
*1855 FILLER_63_0
*1856 FILLER_63_14
*1857 FILLER_63_21
*1858 FILLER_63_28
*1859 FILLER_63_35
*1860 FILLER_63_42
*1861 FILLER_63_49
*1862 FILLER_63_56
*1863 FILLER_63_60
*1864 FILLER_63_67
*1865 FILLER_63_7
*1866 FILLER_64_0
*1867 FILLER_64_14
*1868 FILLER_64_21
*1869 FILLER_64_28
*1870 FILLER_64_35
*1871 FILLER_64_45
*1872 FILLER_64_58
*1873 FILLER_64_62
*1874 FILLER_64_67
*1875 FILLER_64_7
*1876 FILLER_65_0
*1877 FILLER_65_14
*1878 FILLER_65_21
*1879 FILLER_65_28
*1880 FILLER_65_35
*1881 FILLER_65_42
*1882 FILLER_65_50
*1883 FILLER_65_57
*1884 FILLER_65_7
*1885 FILLER_66_0
*1886 FILLER_66_14
*1887 FILLER_66_21
*1888 FILLER_66_28
*1889 FILLER_66_35
*1890 FILLER_66_39
*1891 FILLER_66_46
*1892 FILLER_66_53
*1893 FILLER_66_60
*1894 FILLER_66_62
*1895 FILLER_66_67
*1896 FILLER_66_7
*1897 FILLER_67_0
*1898 FILLER_67_14
*1899 FILLER_67_21
*1900 FILLER_67_28
*1901 FILLER_67_35
*1902 FILLER_67_42
*1903 FILLER_67_60
*1904 FILLER_67_7
*1905 FILLER_67_70
*1906 FILLER_68_0
*1907 FILLER_68_14
*1908 FILLER_68_21
*1909 FILLER_68_28
*1910 FILLER_68_35
*1911 FILLER_68_48
*1912 FILLER_68_55
*1913 FILLER_68_67
*1914 FILLER_68_7
*1915 FILLER_69_0
*1916 FILLER_69_14
*1917 FILLER_69_21
*1918 FILLER_69_28
*1919 FILLER_69_35
*1920 FILLER_69_42
*1921 FILLER_69_48
*1922 FILLER_69_55
*1923 FILLER_69_7
*1924 FILLER_6_0
*1925 FILLER_6_14
*1926 FILLER_6_21
*1927 FILLER_6_28
*1928 FILLER_6_35
*1929 FILLER_6_42
*1930 FILLER_6_49
*1931 FILLER_6_56
*1932 FILLER_6_63
*1933 FILLER_6_7
*1934 FILLER_6_70
*1935 FILLER_70_0
*1936 FILLER_70_14
*1937 FILLER_70_21
*1938 FILLER_70_28
*1939 FILLER_70_35
*1940 FILLER_70_42
*1941 FILLER_70_68
*1942 FILLER_70_7
*1943 FILLER_70_70
*1944 FILLER_71_0
*1945 FILLER_71_14
*1946 FILLER_71_21
*1947 FILLER_71_28
*1948 FILLER_71_35
*1949 FILLER_71_42
*1950 FILLER_71_49
*1951 FILLER_71_56
*1952 FILLER_71_67
*1953 FILLER_71_7
*1954 FILLER_72_0
*1955 FILLER_72_14
*1956 FILLER_72_21
*1957 FILLER_72_28
*1958 FILLER_72_35
*1959 FILLER_72_42
*1960 FILLER_72_49
*1961 FILLER_72_56
*1962 FILLER_72_58
*1963 FILLER_72_7
*1964 FILLER_73_0
*1965 FILLER_73_14
*1966 FILLER_73_21
*1967 FILLER_73_28
*1968 FILLER_73_35
*1969 FILLER_73_42
*1970 FILLER_73_49
*1971 FILLER_73_56
*1972 FILLER_73_58
*1973 FILLER_73_67
*1974 FILLER_73_7
*1975 FILLER_74_0
*1976 FILLER_74_14
*1977 FILLER_74_21
*1978 FILLER_74_28
*1979 FILLER_74_35
*1980 FILLER_74_42
*1981 FILLER_74_49
*1982 FILLER_74_60
*1983 FILLER_74_62
*1984 FILLER_74_7
*1985 FILLER_75_0
*1986 FILLER_75_14
*1987 FILLER_75_21
*1988 FILLER_75_28
*1989 FILLER_75_35
*1990 FILLER_75_42
*1991 FILLER_75_49
*1992 FILLER_75_56
*1993 FILLER_75_58
*1994 FILLER_75_67
*1995 FILLER_75_7
*1996 FILLER_76_0
*1997 FILLER_76_14
*1998 FILLER_76_21
*1999 FILLER_76_28
*2000 FILLER_76_35
*2001 FILLER_76_42
*2002 FILLER_76_49
*2003 FILLER_76_56
*2004 FILLER_76_58
*2005 FILLER_76_67
*2006 FILLER_76_7
*2007 FILLER_77_0
*2008 FILLER_77_14
*2009 FILLER_77_21
*2010 FILLER_77_28
*2011 FILLER_77_35
*2012 FILLER_77_42
*2013 FILLER_77_49
*2014 FILLER_77_56
*2015 FILLER_77_58
*2016 FILLER_77_67
*2017 FILLER_77_7
*2018 FILLER_78_0
*2019 FILLER_78_14
*2020 FILLER_78_21
*2021 FILLER_78_28
*2022 FILLER_78_35
*2023 FILLER_78_42
*2024 FILLER_78_49
*2025 FILLER_78_56
*2026 FILLER_78_58
*2027 FILLER_78_67
*2028 FILLER_78_7
*2029 FILLER_79_0
*2030 FILLER_79_14
*2031 FILLER_79_21
*2032 FILLER_79_28
*2033 FILLER_79_35
*2034 FILLER_79_42
*2035 FILLER_79_49
*2036 FILLER_79_56
*2037 FILLER_79_63
*2038 FILLER_79_7
*2039 FILLER_79_70
*2040 FILLER_7_0
*2041 FILLER_7_14
*2042 FILLER_7_21
*2043 FILLER_7_28
*2044 FILLER_7_35
*2045 FILLER_7_42
*2046 FILLER_7_49
*2047 FILLER_7_56
*2048 FILLER_7_63
*2049 FILLER_7_7
*2050 FILLER_7_70
*2051 FILLER_80_0
*2052 FILLER_80_14
*2053 FILLER_80_21
*2054 FILLER_80_28
*2055 FILLER_80_35
*2056 FILLER_80_42
*2057 FILLER_80_49
*2058 FILLER_80_56
*2059 FILLER_80_58
*2060 FILLER_80_67
*2061 FILLER_80_7
*2062 FILLER_81_0
*2063 FILLER_81_14
*2064 FILLER_81_21
*2065 FILLER_81_28
*2066 FILLER_81_35
*2067 FILLER_81_42
*2068 FILLER_81_49
*2069 FILLER_81_54
*2070 FILLER_81_58
*2071 FILLER_81_7
*2072 FILLER_82_0
*2073 FILLER_82_14
*2074 FILLER_82_21
*2075 FILLER_82_28
*2076 FILLER_82_35
*2077 FILLER_82_42
*2078 FILLER_82_52
*2079 FILLER_82_54
*2080 FILLER_82_68
*2081 FILLER_82_7
*2082 FILLER_82_70
*2083 FILLER_83_0
*2084 FILLER_83_14
*2085 FILLER_83_21
*2086 FILLER_83_28
*2087 FILLER_83_35
*2088 FILLER_83_42
*2089 FILLER_83_49
*2090 FILLER_83_56
*2091 FILLER_83_58
*2092 FILLER_83_7
*2093 FILLER_84_0
*2094 FILLER_84_14
*2095 FILLER_84_21
*2096 FILLER_84_28
*2097 FILLER_84_35
*2098 FILLER_84_42
*2099 FILLER_84_49
*2100 FILLER_84_53
*2101 FILLER_84_7
*2102 FILLER_84_70
*2103 FILLER_85_0
*2104 FILLER_85_14
*2105 FILLER_85_21
*2106 FILLER_85_28
*2107 FILLER_85_35
*2108 FILLER_85_42
*2109 FILLER_85_54
*2110 FILLER_85_7
*2111 FILLER_85_70
*2112 FILLER_86_0
*2113 FILLER_86_14
*2114 FILLER_86_21
*2115 FILLER_86_28
*2116 FILLER_86_35
*2117 FILLER_86_42
*2118 FILLER_86_49
*2119 FILLER_86_56
*2120 FILLER_86_67
*2121 FILLER_86_7
*2122 FILLER_87_0
*2123 FILLER_87_14
*2124 FILLER_87_21
*2125 FILLER_87_28
*2126 FILLER_87_35
*2127 FILLER_87_42
*2128 FILLER_87_49
*2129 FILLER_87_51
*2130 FILLER_87_62
*2131 FILLER_87_67
*2132 FILLER_87_7
*2133 FILLER_88_0
*2134 FILLER_88_14
*2135 FILLER_88_21
*2136 FILLER_88_28
*2137 FILLER_88_35
*2138 FILLER_88_42
*2139 FILLER_88_49
*2140 FILLER_88_53
*2141 FILLER_88_60
*2142 FILLER_88_62
*2143 FILLER_88_7
*2144 FILLER_89_0
*2145 FILLER_89_14
*2146 FILLER_89_21
*2147 FILLER_89_28
*2148 FILLER_89_35
*2149 FILLER_89_42
*2150 FILLER_89_49
*2151 FILLER_89_56
*2152 FILLER_89_58
*2153 FILLER_89_67
*2154 FILLER_89_7
*2155 FILLER_8_0
*2156 FILLER_8_14
*2157 FILLER_8_21
*2158 FILLER_8_28
*2159 FILLER_8_35
*2160 FILLER_8_42
*2161 FILLER_8_49
*2162 FILLER_8_56
*2163 FILLER_8_63
*2164 FILLER_8_7
*2165 FILLER_8_70
*2166 FILLER_90_0
*2167 FILLER_90_14
*2168 FILLER_90_21
*2169 FILLER_90_28
*2170 FILLER_90_35
*2171 FILLER_90_42
*2172 FILLER_90_49
*2173 FILLER_90_53
*2174 FILLER_90_7
*2175 FILLER_91_0
*2176 FILLER_91_14
*2177 FILLER_91_21
*2178 FILLER_91_28
*2179 FILLER_91_35
*2180 FILLER_91_42
*2181 FILLER_91_49
*2182 FILLER_91_53
*2183 FILLER_91_59
*2184 FILLER_91_66
*2185 FILLER_91_7
*2186 FILLER_91_70
*2187 FILLER_92_0
*2188 FILLER_92_14
*2189 FILLER_92_21
*2190 FILLER_92_28
*2191 FILLER_92_35
*2192 FILLER_92_42
*2193 FILLER_92_49
*2194 FILLER_92_56
*2195 FILLER_92_58
*2196 FILLER_92_67
*2197 FILLER_92_7
*2198 FILLER_93_0
*2199 FILLER_93_14
*2200 FILLER_93_21
*2201 FILLER_93_28
*2202 FILLER_93_35
*2203 FILLER_93_42
*2204 FILLER_93_49
*2205 FILLER_93_7
*2206 FILLER_93_70
*2207 FILLER_94_0
*2208 FILLER_94_14
*2209 FILLER_94_21
*2210 FILLER_94_28
*2211 FILLER_94_35
*2212 FILLER_94_42
*2213 FILLER_94_49
*2214 FILLER_94_56
*2215 FILLER_94_58
*2216 FILLER_94_67
*2217 FILLER_94_7
*2218 FILLER_95_0
*2219 FILLER_95_14
*2220 FILLER_95_21
*2221 FILLER_95_28
*2222 FILLER_95_35
*2223 FILLER_95_42
*2224 FILLER_95_49
*2225 FILLER_95_56
*2226 FILLER_95_67
*2227 FILLER_95_7
*2228 FILLER_96_0
*2229 FILLER_96_14
*2230 FILLER_96_21
*2231 FILLER_96_28
*2232 FILLER_96_35
*2233 FILLER_96_42
*2234 FILLER_96_49
*2235 FILLER_96_56
*2236 FILLER_96_58
*2237 FILLER_96_67
*2238 FILLER_96_7
*2239 FILLER_97_0
*2240 FILLER_97_14
*2241 FILLER_97_21
*2242 FILLER_97_28
*2243 FILLER_97_35
*2244 FILLER_97_42
*2245 FILLER_97_49
*2246 FILLER_97_56
*2247 FILLER_97_58
*2248 FILLER_97_67
*2249 FILLER_97_7
*2250 FILLER_98_0
*2251 FILLER_98_14
*2252 FILLER_98_21
*2253 FILLER_98_28
*2254 FILLER_98_35
*2255 FILLER_98_42
*2256 FILLER_98_49
*2257 FILLER_98_56
*2258 FILLER_98_58
*2259 FILLER_98_67
*2260 FILLER_98_7
*2261 FILLER_99_0
*2262 FILLER_99_14
*2263 FILLER_99_21
*2264 FILLER_99_28
*2265 FILLER_99_35
*2266 FILLER_99_42
*2267 FILLER_99_49
*2268 FILLER_99_56
*2269 FILLER_99_63
*2270 FILLER_99_7
*2271 FILLER_99_70
*2272 FILLER_9_0
*2273 FILLER_9_14
*2274 FILLER_9_21
*2275 FILLER_9_28
*2276 FILLER_9_35
*2277 FILLER_9_42
*2278 FILLER_9_49
*2279 FILLER_9_56
*2280 FILLER_9_63
*2281 FILLER_9_7
*2282 FILLER_9_70
*2283 _079_
*2284 _080_
*2285 _081_
*2286 _082_
*2287 _083_
*2288 _084_
*2289 _085_
*2290 _086_
*2291 _087_
*2292 _088_
*2293 _089_
*2294 _090_
*2295 _091_
*2296 _092_
*2297 _093_
*2298 _094_
*2299 _095_
*2300 _096_
*2301 _097_
*2302 _098_
*2303 _099_
*2304 _100_
*2305 _101_
*2306 _102_
*2307 _103_
*2308 _104_
*2309 _105_
*2310 _106_
*2311 _107_
*2312 _108_
*2313 _109_
*2314 _110_
*2315 _111_
*2316 _112_
*2317 _113_
*2318 _114_
*2319 _115_
*2320 _116_
*2321 _117_
*2322 _118_
*2323 _119_
*2324 _120_
*2325 _121_
*2326 _122_
*2327 _123_
*2328 _124_
*2329 _125_
*2330 _126_
*2331 _127_
*2332 _128_
*2333 _129_
*2334 _130_
*2335 _131_
*2336 _132_
*2337 _133_
*2338 _134_
*2339 _135_
*2340 _136_
*2341 _137_
*2342 _138_
*2343 _139_
*2344 _140_
*2345 _141_
*2346 _142_
*2347 _143_
*2348 _144_
*2349 _145_
*2350 _146_
*2351 _147_
*2352 _148_
*2353 _149_
*2354 _150_
*2355 _151_
*2356 _152_
*2357 _153_
*2358 _154_
*2359 _155_
*2360 _156_
*2361 _157_
*2362 _158_
*2363 _159_
*2364 _160_
*2365 _161_
*2366 _162_
*2367 _163_
*2368 _164_
*2369 _165_
*2370 _166_
*2371 _167_
*2372 _168_
*2373 _169_
*2374 _170_
*2375 _171_
*2376 _172_
*2377 _173_
*2378 _174_
*2379 _175_
*2380 _176_
*2381 _177_
*2382 _178_
*2383 _179_
*2384 _180_
*2385 _181_
*2386 _182_
*2387 _183_
*2388 _184_
*2389 _185_
*2390 _186_
*2391 _187_
*2392 _188_
*2393 _189_
*2394 _190_
*2395 _191_
*2396 _192_
*2397 _193_
*2398 _194_
*2399 _195_
*2400 _196_
*2401 _197_
*2402 _198_
*2403 _199_
*2404 _200_
*2405 _201_
*2406 _202_
*2407 _203_
*2408 _204_
*2409 _205_
*2410 _206_
*2411 _207_
*2412 _208_
*2413 _209_
*2414 _210_
*2415 _211_
*2416 _212_
*2417 _213_
*2418 _214_
*2419 _215_
*2420 _216_
*2421 _217_
*2422 _218_
*2423 _219_
*2424 _220_
*2425 _221_
*2426 _222_
*2427 _223_
*2428 _224_
*2429 _225_
*2430 _226_
*2431 _227_
*2432 _228_
*2433 _229_
*2434 _230_
*2435 _231_
*2436 _232_
*2437 _233_
*2438 _234_
*2439 _235_
*2440 _236_
*2441 _237_
*2442 _238_
*2443 _239_
*2444 _240_
*2445 _241_
*2446 _242_
*2447 _243_
*2448 _244_
*2449 _245_
*2450 _246_
*2451 _247_
*2452 _248_
*2453 _249_
*2454 _250_
*2455 _251_
*2456 _252_
*2457 _253_
*2458 _254_
*2459 _255_
*2460 _256_
*2461 _257_
*2462 _258_
*2463 _259_
*2464 _260_
*2465 _261_
*2466 _262_
*2467 _263_
*2468 _264_
*2469 _265_
*2470 _266_
*2471 _267_
*2472 _268_
*2473 _269_
*2474 _270_
*2475 _271_
*2476 _272_
*2477 _273_
*2478 _274_
*2479 _275_
*2480 _276_
*2481 _277_
*2482 _278_
*2483 _279_
*2484 _280_
*2485 _281_
*2486 _282_
*2487 _283_
*2488 _284_
*2489 _285_
*2490 _286_
*2491 _287_
*2492 _288_
*2493 _289_
*2494 _290_
*2495 _291_
*2496 _292_
*2497 _293_
*2498 _294_
*2499 _295_
*2500 _296_
*2501 _297_
*2502 _298_
*2503 _299_
*2504 _300_
*2505 _301_
*2506 _302_
*2507 _303_
*2508 _304_
*2509 _305_
*2510 _306_
*2511 _307_
*2512 _308_
*2513 _309_
*2514 _310_
*2515 _311_
*2516 _312_
*2517 _313_
*2518 _314_
*2519 _315_
*2520 _316_
*2521 _317_
*2522 _318_
*2523 _319_
*2524 _320_
*2525 _321_
*2526 _322_
*2527 _323_
*2528 _324_
*2529 _325_
*2530 _326_
*2531 _327_
*2532 _328_
*2533 _329_
*2534 _330_
*2535 _331_
*2536 _332_
*2537 _333_
*2538 _334_
*2539 _335_
*2540 _336_
*2541 _337_
*2542 _338_
*2543 _339_
*2544 _340_
*2545 _341_
*2546 _342_
*2547 _343_
*2548 _344_
*2549 _345_
*2550 _346_
*2551 _347_
*2552 _348_
*2553 _349_
*2554 _350_
*2555 _351_
*2556 _352_
*2557 _353_
*2558 _354_
*2559 _355_
*2560 _356_
*2561 _357_
*2562 _358_
*2563 _359_
*2564 _360_
*2565 _361_
*2566 _362_
*2567 _363_
*2568 _364_
*2569 _365_
*2570 _366_
*2571 _367_
*2572 _368_
*2573 _369_
*2574 _370_
*2575 _371_
*2576 _372_
*2577 _373_
*2578 _374_
*2579 _375_
*2580 _376_
*2581 _377_
*2582 _378_
*2583 _379_
*2584 _380_
*2585 _381_
*2586 _382_
*2587 _383_
*2588 _384_
*2589 _385_
*2590 _386_
*2591 _387_
*2592 _388_
*2593 _389_
*2594 _390_
*2595 _391_
*2596 _392_
*2597 _393_
*2598 _394_
*2599 _395_
*2600 _396_
*2601 _397_
*2602 _398_
*2603 _399_
*2604 _400_
*2605 _401_
*2606 _402_
*2607 _403_
*2608 _404_
*2609 _405_
*2610 _406_
*2611 _407_
*2612 _408_
*2613 _409_
*2614 _410_
*2615 _411_
*2616 _412_
*2617 _413_

*PORTS
ena_i I
input_ni[0] I
input_ni[1] I
input_ni[2] I
input_ni[3] I
input_ni[4] I
input_ni[5] I
input_ni[6] I
output_no[0] O
output_no[100] O
output_no[101] O
output_no[102] O
output_no[103] O
output_no[104] O
output_no[105] O
output_no[106] O
output_no[107] O
output_no[108] O
output_no[109] O
output_no[10] O
output_no[110] O
output_no[111] O
output_no[112] O
output_no[113] O
output_no[114] O
output_no[115] O
output_no[116] O
output_no[117] O
output_no[118] O
output_no[119] O
output_no[11] O
output_no[120] O
output_no[121] O
output_no[122] O
output_no[123] O
output_no[124] O
output_no[125] O
output_no[126] O
output_no[127] O
output_no[12] O
output_no[13] O
output_no[14] O
output_no[15] O
output_no[16] O
output_no[17] O
output_no[18] O
output_no[19] O
output_no[1] O
output_no[20] O
output_no[21] O
output_no[22] O
output_no[23] O
output_no[24] O
output_no[25] O
output_no[26] O
output_no[27] O
output_no[28] O
output_no[29] O
output_no[2] O
output_no[30] O
output_no[31] O
output_no[32] O
output_no[33] O
output_no[34] O
output_no[35] O
output_no[36] O
output_no[37] O
output_no[38] O
output_no[39] O
output_no[3] O
output_no[40] O
output_no[41] O
output_no[42] O
output_no[43] O
output_no[44] O
output_no[45] O
output_no[46] O
output_no[47] O
output_no[48] O
output_no[49] O
output_no[4] O
output_no[50] O
output_no[51] O
output_no[52] O
output_no[53] O
output_no[54] O
output_no[55] O
output_no[56] O
output_no[57] O
output_no[58] O
output_no[59] O
output_no[5] O
output_no[60] O
output_no[61] O
output_no[62] O
output_no[63] O
output_no[64] O
output_no[65] O
output_no[66] O
output_no[67] O
output_no[68] O
output_no[69] O
output_no[6] O
output_no[70] O
output_no[71] O
output_no[72] O
output_no[73] O
output_no[74] O
output_no[75] O
output_no[76] O
output_no[77] O
output_no[78] O
output_no[79] O
output_no[7] O
output_no[80] O
output_no[81] O
output_no[82] O
output_no[83] O
output_no[84] O
output_no[85] O
output_no[86] O
output_no[87] O
output_no[88] O
output_no[89] O
output_no[8] O
output_no[90] O
output_no[91] O
output_no[92] O
output_no[93] O
output_no[94] O
output_no[95] O
output_no[96] O
output_no[97] O
output_no[98] O
output_no[99] O
output_no[9] O
output_o[0] O
output_o[100] O
output_o[101] O
output_o[102] O
output_o[103] O
output_o[104] O
output_o[105] O
output_o[106] O
output_o[107] O
output_o[108] O
output_o[109] O
output_o[10] O
output_o[110] O
output_o[111] O
output_o[112] O
output_o[113] O
output_o[114] O
output_o[115] O
output_o[116] O
output_o[117] O
output_o[118] O
output_o[119] O
output_o[11] O
output_o[120] O
output_o[121] O
output_o[122] O
output_o[123] O
output_o[124] O
output_o[125] O
output_o[126] O
output_o[127] O
output_o[12] O
output_o[13] O
output_o[14] O
output_o[15] O
output_o[16] O
output_o[17] O
output_o[18] O
output_o[19] O
output_o[1] O
output_o[20] O
output_o[21] O
output_o[22] O
output_o[23] O
output_o[24] O
output_o[25] O
output_o[26] O
output_o[27] O
output_o[28] O
output_o[29] O
output_o[2] O
output_o[30] O
output_o[31] O
output_o[32] O
output_o[33] O
output_o[34] O
output_o[35] O
output_o[36] O
output_o[37] O
output_o[38] O
output_o[39] O
output_o[3] O
output_o[40] O
output_o[41] O
output_o[42] O
output_o[43] O
output_o[44] O
output_o[45] O
output_o[46] O
output_o[47] O
output_o[48] O
output_o[49] O
output_o[4] O
output_o[50] O
output_o[51] O
output_o[52] O
output_o[53] O
output_o[54] O
output_o[55] O
output_o[56] O
output_o[57] O
output_o[58] O
output_o[59] O
output_o[5] O
output_o[60] O
output_o[61] O
output_o[62] O
output_o[63] O
output_o[64] O
output_o[65] O
output_o[66] O
output_o[67] O
output_o[68] O
output_o[69] O
output_o[6] O
output_o[70] O
output_o[71] O
output_o[72] O
output_o[73] O
output_o[74] O
output_o[75] O
output_o[76] O
output_o[77] O
output_o[78] O
output_o[79] O
output_o[7] O
output_o[80] O
output_o[81] O
output_o[82] O
output_o[83] O
output_o[84] O
output_o[85] O
output_o[86] O
output_o[87] O
output_o[88] O
output_o[89] O
output_o[8] O
output_o[90] O
output_o[91] O
output_o[92] O
output_o[93] O
output_o[94] O
output_o[95] O
output_o[96] O
output_o[97] O
output_o[98] O
output_o[99] O
output_o[9] O

*D_NET *3 0.0620618
*CONN
*P ena_i I
*I *2374:A I *D sg13g2_or3_1
*I *2382:A I *D sg13g2_or3_1
*I *2381:A I *D sg13g2_nor3_1
*I *2369:A I *D sg13g2_nor2_1
*I *2401:A I *D sg13g2_nor3_1
*I *2409:A I *D sg13g2_nor3_1
*I *2414:A_N I *D sg13g2_nand3b_1
*I *2426:A_N I *D sg13g2_nand3b_1
*I *2290:A_N I *D sg13g2_nand2b_1
*I *2289:A I *D sg13g2_nor2b_1
*I *2430:A_N I *D sg13g2_nand2b_1
*I *2429:A I *D sg13g2_nor2b_1
*I *2422:A_N I *D sg13g2_nand3b_1
*I *2425:A I *D sg13g2_nor4_1
*I *2410:A_N I *D sg13g2_nand3b_1
*I *2406:A_N I *D sg13g2_nand3b_1
*I *2421:A I *D sg13g2_nor4_1
*I *2405:A I *D sg13g2_nor3_1
*I *2413:A I *D sg13g2_nor3_1
*I *2394:A_N I *D sg13g2_nand3b_1
*I *2390:A_N I *D sg13g2_nand3b_1
*I *2389:A I *D sg13g2_nor3_1
*I *2398:A_N I *D sg13g2_nand3b_1
*I *2393:A I *D sg13g2_nor3_1
*I *2397:A I *D sg13g2_nor3_1
*I *2386:A I *D sg13g2_or3_1
*I *2417:A I *D sg13g2_nor4_1
*I *2418:A I *D sg13g2_or4_1
*I *2402:A I *D sg13g2_or3_1
*I *2385:A I *D sg13g2_nor3_1
*I *2373:A I *D sg13g2_nor3_1
*I *2377:A I *D sg13g2_nor3_1
*I *2378:A I *D sg13g2_or3_1
*I *2370:A I *D sg13g2_or2_1
*CAP
1 ena_i 0.00114597
2 *2374:A 0
3 *2382:A 9.89257e-05
4 *2381:A 0.000222146
5 *2369:A 0.000609263
6 *2401:A 2.77263e-05
7 *2409:A 3.30013e-05
8 *2414:A_N 0
9 *2426:A_N 4.98234e-05
10 *2290:A_N 5.04213e-05
11 *2289:A 0
12 *2430:A_N 3.10612e-05
13 *2429:A 0
14 *2422:A_N 0.000150621
15 *2425:A 0.000244744
16 *2410:A_N 0
17 *2406:A_N 0
18 *2421:A 0
19 *2405:A 0
20 *2413:A 0
21 *2394:A_N 2.60565e-05
22 *2390:A_N 0.000152899
23 *2389:A 0.000182492
24 *2398:A_N 0.000148998
25 *2393:A 0
26 *2397:A 0
27 *2386:A 0
28 *2417:A 0
29 *2418:A 0
30 *2402:A 0
31 *2385:A 0
32 *2373:A 3.95614e-05
33 *2377:A 0
34 *2378:A 3.66491e-05
35 *2370:A 3.09654e-05
36 *3:353 0.000365506
37 *3:345 0.00187346
38 *3:336 0.00154689
39 *3:323 0.000719108
40 *3:306 0.000904466
41 *3:293 0.000393176
42 *3:289 0.0003715
43 *3:282 0.000333508
44 *3:274 0.000962262
45 *3:263 0.000954576
46 *3:248 0.000923855
47 *3:240 0.000804537
48 *3:233 0.00058347
49 *3:227 0.00034877
50 *3:220 0.000753365
51 *3:196 0.000322143
52 *3:192 0.00124458
53 *3:168 0.000331489
54 *3:166 0.000614173
55 *3:155 0.000758974
56 *3:144 0.00113491
57 *3:142 0.00096932
58 *3:129 0.000898929
59 *3:112 0.000237421
60 *3:104 0.00105558
61 *3:95 0.000536521
62 *3:88 0.000188348
63 *3:80 0.00045778
64 *3:78 0.0002748
65 *3:71 0.000193716
66 *3:63 0.00113485
67 *3:54 0.00105899
68 *3:50 0.00075017
69 *3:48 0.000251388
70 *3:41 0.000474686
71 *3:39 0.0011519
72 *3:26 0.000691723
73 *3:22 0.000681618
74 *3:13 0.00455914
75 *3:7 0.00504007
76 *2290:A_N *10:128 1.54008e-05
77 *2290:A_N *275:16 3.23417e-05
78 *2369:A *2577:A 0.000232069
79 *2369:A *282:42 0
80 *2369:A *289:38 0.000157916
81 *2369:A *290:20 0
82 *2369:A *291:32 1.54556e-05
83 *2369:A *291:49 0.000822667
84 *2369:A *345:104 0.000500118
85 *2370:A *2370:B 0
86 *2373:A *270:52 0
87 *2373:A *282:42 0
88 *2378:A *2614:C 0.000181141
89 *2378:A *289:65 0.000179772
90 *2381:A *269:113 0.000176252
91 *2382:A *2382:B 4.77425e-05
92 *2382:A *291:49 0.000112656
93 *2389:A *2389:C 0.000176551
94 *2389:A *269:33 0.000103073
95 *2389:A *313:12 4.77425e-05
96 *2389:A *315:8 0.00012596
97 *2390:A_N *2390:B 0.000287389
98 *2390:A_N *2390:C 0.000338925
99 *2390:A_N *284:139 4.79124e-05
100 *2394:A_N *282:122 4.77425e-05
101 *2394:A_N *283:178 4.77425e-05
102 *2398:A_N *2330:B 0
103 *2398:A_N *2389:C 0.000388216
104 *2398:A_N *2398:C 0.000124547
105 *2398:A_N *269:33 0.000232111
106 *2398:A_N *295:72 0
107 *2422:A_N *285:73 1.54008e-05
108 *2422:A_N *285:79 0.000279156
109 *2422:A_N *313:19 4.77425e-05
110 *2422:A_N *332:10 0.000176083
111 *2425:A *2371:B 0
112 *2425:A *2425:C 0.000126005
113 *2425:A *6:13 6.46834e-05
114 *2425:A *6:19 1.53666e-05
115 *2425:A *7:21 0
116 *2425:A *171:10 0
117 *2426:A_N *2426:B 0
118 *2430:A_N *275:16 4.77425e-05
119 *2430:A_N *287:54 1.54008e-05
120 *3:13 output_no[5] 0
121 *3:13 output_o[4] 0
122 *3:13 *2370:B 0
123 *3:13 *2572:A 0
124 *3:13 *170:6 0
125 *3:13 *174:8 0
126 *3:13 *189:8 0
127 *3:13 *290:20 0
128 *3:13 *291:49 0
129 *3:13 *304:6 0.0001773
130 *3:22 *2374:B 4.77425e-05
131 *3:22 *282:46 4.77425e-05
132 *3:22 *290:20 0
133 *3:22 *291:49 0
134 *3:26 *2332:B 0.000158743
135 *3:26 *2614:C 0.000159096
136 *3:26 *282:48 7.47759e-05
137 *3:26 *289:65 7.48209e-05
138 *3:39 *2335:B 1.54008e-05
139 *3:39 *284:69 0
140 *3:39 *284:71 0
141 *3:39 *289:48 0
142 *3:39 *289:69 3.23417e-05
143 *3:39 *291:49 0
144 *3:41 *2382:B 4.77425e-05
145 *3:41 *269:113 0.000533539
146 *3:41 *289:48 0
147 *3:41 *291:49 0
148 *3:48 *269:113 3.23417e-05
149 *3:54 *284:104 0
150 *3:54 *289:38 0.000124859
151 *3:54 *305:10 7.51285e-05
152 *3:63 *2308:C 0
153 *3:63 *269:95 0
154 *3:63 *269:113 0
155 *3:63 *270:52 0
156 *3:63 *277:93 0
157 *3:63 *277:95 0
158 *3:63 *278:84 0.000497014
159 *3:63 *278:97 0
160 *3:63 *282:34 0
161 *3:63 *284:55 0
162 *3:63 *290:16 0.000306533
163 *3:63 *305:105 7.93691e-05
164 *3:71 *2385:C 0.000124773
165 *3:71 *269:95 0.0001122
166 *3:71 *279:49 0
167 *3:71 *289:23 7.98582e-05
168 *3:71 *290:8 7.62389e-05
169 *3:71 *319:10 0.000229491
170 *3:78 *278:84 9.7025e-05
171 *3:78 *290:16 4.75166e-05
172 *3:80 *2323:B 0
173 *3:80 *278:67 0
174 *3:80 *278:84 6.46834e-05
175 *3:80 *328:10 0
176 *3:88 *2402:B 4.77425e-05
177 *3:88 *290:36 0.000442475
178 *3:88 *291:32 0.00048882
179 *3:95 *2418:B 1.54008e-05
180 *3:104 *277:83 0
181 *3:104 *279:22 0
182 *3:112 output_o[30] 0
183 *3:112 *6:150 0.000112426
184 *3:112 *284:24 0
185 *3:112 *285:10 0
186 *3:112 *327:8 7.51285e-05
187 *3:129 *268:32 1.54008e-05
188 *3:129 *268:34 4.77425e-05
189 *3:129 *268:42 0.000143351
190 *3:129 *269:95 0.000175809
191 *3:129 *277:83 0.000209481
192 *3:129 *279:18 0
193 *3:129 *285:10 0
194 *3:129 *299:10 0.000176396
195 *3:142 *268:32 0.00074365
196 *3:142 *269:95 0.000759051
197 *3:142 *281:8 0
198 *3:144 *268:32 0
199 *3:144 *277:75 0.000760377
200 *3:144 *294:144 0.000209614
201 *3:144 *317:14 0.000274785
202 *3:155 *268:22 0
203 *3:155 *269:33 1.54008e-05
204 *3:155 *277:75 0.000291583
205 *3:155 *278:51 0
206 *3:155 *317:14 8.02267e-05
207 *3:166 *278:51 5.23627e-05
208 *3:192 *269:33 0
209 *3:192 *278:51 0.000838677
210 *3:196 *2349:A 0.000180882
211 *3:196 *2390:B 0.000103073
212 *3:196 *2390:C 0.000124824
213 *3:196 *267:106 0.000179348
214 *3:196 *269:39 7.48178e-05
215 *3:196 *327:31 0
216 *3:220 *270:139 0
217 *3:220 *278:51 0
218 *3:220 *294:204 4.77425e-05
219 *3:227 *2405:B 0
220 *3:227 *2409:B 0
221 *3:227 *270:158 0
222 *3:227 *282:137 0.000144025
223 *3:227 *282:152 1.54008e-05
224 *3:233 *2409:C 0.00022762
225 *3:240 *2414:C 1.54282e-05
226 *3:240 *282:152 0
227 *3:240 *295:30 0
228 *3:248 *2406:B 0
229 *3:248 *2421:B 6.39133e-05
230 *3:248 *2421:D 0
231 *3:248 *295:30 0.000262501
232 *3:263 output_o[45] 0
233 *3:263 *2406:B 0
234 *3:263 *2406:C 1.54282e-05
235 *3:263 *266:12 0
236 *3:263 *282:171 7.91045e-05
237 *3:263 *295:24 0
238 *3:263 *295:30 9.03201e-05
239 *3:274 output_o[46] 8.02269e-05
240 *3:274 *2406:C 0.000112561
241 *3:274 *275:26 0
242 *3:274 *295:18 0.000112357
243 *3:274 *295:24 0
244 *3:282 output_o[46] 0
245 *3:282 *2410:C 8.01116e-05
246 *3:282 *2426:B 0.000354811
247 *3:282 *44:12 0.000230932
248 *3:282 *275:26 0.000434923
249 *3:289 *275:26 0
250 *3:289 *295:10 0.000208255
251 *3:289 *295:18 0.000193609
252 *3:293 *275:16 0
253 *3:293 *295:10 9.72278e-05
254 *3:306 *2371:B 0
255 *3:306 *171:10 0
256 *3:323 *275:16 0.00111569
257 *3:323 *295:10 0
258 *3:336 *45:10 0.000124547
259 *3:336 *275:16 4.77425e-05
260 *3:336 *287:60 0.000124547
261 *3:336 *295:10 0
262 *3:345 *2328:B 0
263 *3:345 *275:16 0.00223204
264 *3:345 *294:10 0
265 *3:345 *302:75 0
266 *3:345 *313:19 0
267 *3:345 *313:44 0
268 *3:345 *329:47 0
269 *3:353 *2403:B 0
270 *3:353 *10:134 0
271 *3:353 *273:12 8.00842e-05
272 *3:353 *275:8 7.33225e-05
273 *3:353 *309:43 8.02267e-05
*RES
1 ena_i *3:7 34.8835 
2 *3:7 *3:13 41.2206 
3 *3:13 *2370:A 20.3502 
4 *3:13 *3:22 5.7268 
5 *3:22 *3:26 21.0918 
6 *3:26 *2378:A 40.8446 
7 *3:26 *3:39 25.5105 
8 *3:39 *3:41 4.6453 
9 *3:41 *2377:A 20 
10 *3:41 *3:48 0.3193 
11 *3:48 *3:50 20 
12 *3:50 *3:54 21.339 
13 *3:54 *2373:A 20.3193 
14 *3:54 *3:63 8.755 
15 *3:63 *3:71 42.3381 
16 *3:71 *2385:A 20 
17 *3:63 *3:78 0.7519 
18 *3:78 *3:80 1.6171 
19 *3:80 *3:88 42.8325 
20 *3:88 *2402:A 20 
21 *3:80 *3:95 0.7519 
22 *3:95 *2418:A 20 
23 *3:95 *3:104 3.9449 
24 *3:104 *3:112 42.0909 
25 *3:112 *2417:A 20 
26 *3:104 *3:129 43.7801 
27 *3:129 *2386:A 20 
28 *3:129 *3:142 45.9225 
29 *3:142 *3:144 5.0779 
30 *3:144 *2397:A 20 
31 *3:144 *3:155 6.4272 
32 *3:155 *2393:A 20 
33 *3:155 *3:166 0.7004 
34 *3:166 *3:168 20 
35 *3:168 *2398:A_N 42.1527 
36 *3:168 *2389:A 41.9055 
37 *3:166 *3:192 5.7268 
38 *3:192 *3:196 22.0806 
39 *3:196 *2390:A_N 42.1527 
40 *3:196 *2394:A_N 40.3193 
41 *3:192 *3:220 4.5629 
42 *3:220 *2413:A 20 
43 *3:220 *3:227 1.8334 
44 *3:227 *3:233 41.0918 
45 *3:233 *2405:A 20 
46 *3:233 *3:240 3.9964 
47 *3:240 *3:248 3.3578 
48 *3:248 *2421:A 20 
49 *3:248 *3:263 44.9028 
50 *3:263 *2406:A_N 20 
51 *3:263 *3:274 3.8625 
52 *3:274 *3:282 44.0067 
53 *3:282 *2410:A_N 20 
54 *3:274 *3:289 2.6986 
55 *3:289 *3:293 20.7519 
56 *3:293 *2425:A 42.1218 
57 *3:293 *3:306 0.8446 
58 *3:306 *2422:A_N 41.9776 
59 *3:306 *3:323 27.4572 
60 *3:323 *2429:A 20 
61 *3:323 *3:336 40.9167 
62 *3:336 *2430:A_N 20.3193 
63 *3:336 *3:345 15.0277 
64 *3:345 *3:353 42.6162 
65 *3:353 *2289:A 20 
66 *3:345 *2290:A_N 20.5356 
67 *3:289 *2426:A_N 20.6695 
68 *3:240 *2414:A_N 20 
69 *3:227 *2409:A 20.3502 
70 *3:78 *2401:A 20.3502 
71 *3:50 *2369:A 46.8495 
72 *3:48 *2381:A 22.0703 
73 *3:39 *2382:A 21.3493 
74 *3:22 *2374:A 20 
*END

*D_NET *4 0.0133804
*CONN
*P input_ni[0] I
*I *2325:A I *D sg13g2_nand4_1
*I *2297:A I *D sg13g2_nand2_1
*I *2302:A_N I *D sg13g2_nand2b_1
*I *2306:B I *D sg13g2_nand2b_1
*I *2305:B_N I *D sg13g2_nor2b_1
*I *2286:A I *D sg13g2_or2_1
*I *2301:A I *D sg13g2_nor2b_1
*I *2319:A I *D sg13g2_nor4_1
*I *2285:A I *D sg13g2_nor2_1
*CAP
1 input_ni[0] 0.000781062
2 *2325:A 0.0002281
3 *2297:A 0
4 *2302:A_N 0
5 *2306:B 0.000172667
6 *2305:B_N 0
7 *2286:A 3.07197e-05
8 *2301:A 0
9 *2319:A 0
10 *2285:A 0
11 *4:63 0.000242959
12 *4:54 0.000327182
13 *4:35 0.000171234
14 *4:29 0.000437245
15 *4:25 0.000539649
16 *4:19 0.000713017
17 *4:15 0.000213209
18 *4:13 0.000341079
19 *4:9 0.00305322
20 *4:7 0.0037213
21 *2306:B *2306:A_N 1.49544e-05
22 *2306:B *270:110 0
23 *2306:B *284:20 0.000209614
24 *2306:B *284:116 6.46834e-05
25 *2325:A *2325:B 4.77425e-05
26 *2325:A *279:10 0
27 *2325:A *291:8 0
28 *4:7 *308:14 0.000342157
29 *4:9 *2297:B 1.54008e-05
30 *4:9 *45:18 0
31 *4:9 *268:52 0
32 *4:9 *284:20 0
33 *4:9 *305:12 0
34 *4:19 *2297:B 0.000240249
35 *4:19 *2302:B 1.54008e-05
36 *4:19 *284:20 0
37 *4:25 *6:110 0
38 *4:25 *283:8 0
39 *4:29 *2319:B 3.08016e-05
40 *4:29 *5:63 0.000337532
41 *4:29 *6:110 0
42 *4:29 *291:8 0
43 *4:35 *7:161 0.000180329
44 *4:35 *116:12 0.000439478
45 *4:35 *287:8 0
46 *4:54 *2297:B 0.000293711
47 *4:54 *5:17 0
48 *4:54 *270:10 0.000175677
49 *4:54 *284:20 0
50 *4:63 *2306:A_N 0
51 *4:63 *284:20 0
*RES
1 input_ni[0] *4:7 28.9507 
2 *4:7 *4:9 30.8176 
3 *4:9 *4:13 20.8446 
4 *4:13 *4:15 20 
5 *4:15 *4:19 2.1836 
6 *4:19 *4:25 42.0806 
7 *4:25 *4:29 2.6162 
8 *4:29 *4:35 42.0806 
9 *4:35 *2285:A 20 
10 *4:29 *2319:A 20 
11 *4:25 *2301:A 20 
12 *4:19 *4:54 2.6162 
13 *4:54 *2286:A 20.3502 
14 *4:54 *4:63 0.8446 
15 *4:63 *2305:B_N 20 
16 *4:63 *2306:B 21.8334 
17 *4:19 *2302:A_N 20 
18 *4:15 *2297:A 20 
19 *4:13 *2325:A 41.8746 
*END

*D_NET *5 0.0122089
*CONN
*P input_ni[1] I
*I *2306:A_N I *D sg13g2_nand2b_1
*I *2285:B I *D sg13g2_nor2_1
*I *2319:B I *D sg13g2_nor4_1
*I *2301:B_N I *D sg13g2_nor2b_1
*I *2325:B I *D sg13g2_nand4_1
*I *2305:A I *D sg13g2_nor2b_1
*I *2302:B I *D sg13g2_nand2b_1
*I *2286:B I *D sg13g2_or2_1
*I *2297:B I *D sg13g2_nand2_1
*CAP
1 input_ni[1] 0.00155239
2 *2306:A_N 5.5108e-05
3 *2285:B 0
4 *2319:B 0.000131582
5 *2301:B_N 0
6 *2325:B 0.00015764
7 *2305:A 0
8 *2302:B 0.000201379
9 *2286:B 0
10 *2297:B 0.000334288
11 *5:94 0.000620647
12 *5:63 0.000415797
13 *5:59 0.000413883
14 *5:52 0.000112107
15 *5:37 0.000399555
16 *5:17 0.000411596
17 *5:13 0.000449241
18 *5:9 0.00248986
19 *2302:B *270:10 0.0001773
20 *2302:B *284:20 0.00027444
21 *2319:B *6:94 8.00496e-05
22 *2319:B *7:74 1.53662e-05
23 *2325:B *2330:B 0
24 *2325:B *6:110 4.77425e-05
25 *2325:B *7:80 0.000144291
26 *5:9 *6:73 0.000388191
27 *5:9 *6:81 0.000599055
28 *5:9 *284:116 0
29 *5:9 *305:12 0
30 *5:9 *318:26 0.000599904
31 *5:13 *270:110 0
32 *5:13 *305:12 0
33 *5:17 *305:12 0
34 *5:37 *116:12 0.00022894
35 *5:52 *7:161 7.30101e-05
36 *5:52 *116:12 0.000229273
37 *5:63 *7:80 0
38 *5:94 *2330:B 0.00030526
39 *5:94 *6:81 0
40 *5:94 *191:12 0.00030526
41 *5:94 *267:8 0
42 *5:94 *270:110 0
43 *2306:B *2306:A_N 1.49544e-05
44 *2325:A *2325:B 4.77425e-05
45 *4:9 *2297:B 1.54008e-05
46 *4:19 *2297:B 0.000240249
47 *4:19 *2302:B 1.54008e-05
48 *4:29 *2319:B 3.08016e-05
49 *4:29 *5:63 0.000337532
50 *4:54 *2297:B 0.000293711
51 *4:54 *5:17 0
52 *4:63 *2306:A_N 0
*RES
1 input_ni[1] *5:9 37.9838 
2 *5:9 *5:13 2.8943 
3 *5:13 *5:17 0.8858 
4 *5:17 *2297:B 24.017 
5 *5:17 *2286:B 20 
6 *5:13 *5:37 21.0918 
7 *5:37 *2302:B 42.369 
8 *5:37 *5:52 21.0918 
9 *5:52 *2305:A 20 
10 *5:52 *5:59 0.3502 
11 *5:59 *5:63 2.6162 
12 *5:63 *2325:B 21.6171 
13 *5:63 *2301:B_N 20 
14 *5:59 *2319:B 21.6686 
15 *5:9 *5:94 45.3663 
16 *5:94 *2285:B 20 
17 *5:9 *2306:A_N 20.7725 
*END

*D_NET *6 0.029344
*CONN
*P input_ni[2] I
*I *2425:B I *D sg13g2_nor4_1
*I *2362:A I *D sg13g2_nor4_1
*I *2360:A I *D sg13g2_nor4_1
*I *2421:B I *D sg13g2_nor4_1
*I *2295:B_N I *D sg13g2_nor2b_1
*I *2296:B I *D sg13g2_nand2b_1
*I *2284:A_N I *D sg13g2_nand2b_1
*I *2319:C I *D sg13g2_nor4_1
*I *2325:C I *D sg13g2_nand4_1
*I *2311:A I *D sg13g2_nor2_1
*I *2417:B I *D sg13g2_nor4_1
*I *2418:B I *D sg13g2_or4_1
*I *2323:A I *D sg13g2_nand2_1
*I *2317:A I *D sg13g2_nor4_1
*I *2315:A I *D sg13g2_nor4_1
*I *2283:A I *D sg13g2_nor2b_1
*CAP
1 input_ni[2] 0.00115697
2 *2425:B 0
3 *2362:A 0
4 *2360:A 0
5 *2421:B 0.000164155
6 *2295:B_N 0
7 *2296:B 0
8 *2284:A_N 0
9 *2319:C 0
10 *2325:C 0
11 *2311:A 0
12 *2417:B 0
13 *2418:B 2.61921e-05
14 *2323:A 0.000343826
15 *2317:A 0
16 *2315:A 0.000189169
17 *2283:A 0
18 *6:150 0.000768812
19 *6:144 0.000474918
20 *6:126 0.000488733
21 *6:120 0.000375688
22 *6:118 0.0005062
23 *6:110 0.00107794
24 *6:94 0.00108497
25 *6:81 0.00113435
26 *6:73 0.00150815
27 *6:71 0.00123744
28 *6:63 0.000400892
29 *6:57 0.000559283
30 *6:47 0.000686894
31 *6:43 0.000434543
32 *6:39 0.000332146
33 *6:29 0.000736757
34 *6:19 0.000995535
35 *6:13 0.00231254
36 *6:11 0.00297088
37 *2315:A *7:90 0.000129643
38 *2315:A *7:98 1.54556e-05
39 *2315:A *270:30 0.00029626
40 *2323:A *2323:B 4.77425e-05
41 *2323:A *2418:C 1.61708e-05
42 *2323:A *2418:D 0
43 *2323:A *279:34 0.000272528
44 *2421:B *7:191 0.00022922
45 *2421:B *161:12 0
46 *6:11 *2399:B 0
47 *6:11 *318:34 0
48 *6:13 *2425:D 0
49 *6:13 *295:10 0
50 *6:13 *305:20 0
51 *6:13 *309:20 0
52 *6:13 *309:43 0.000754517
53 *6:19 output_o[47] 0
54 *6:19 *2364:A 0
55 *6:19 *2425:D 0
56 *6:19 *7:21 0
57 *6:19 *7:215 0.000191395
58 *6:19 *295:129 4.75265e-05
59 *6:29 *2364:A 0
60 *6:29 *295:24 0
61 *6:29 *295:30 0
62 *6:39 *7:202 0.000179814
63 *6:39 *266:12 0.000181034
64 *6:39 *319:35 0.000322471
65 *6:43 *7:33 0
66 *6:43 *161:12 0
67 *6:47 *2364:A 0
68 *6:47 *7:37 0.00027282
69 *6:57 *7:37 1.54008e-05
70 *6:57 *7:43 0
71 *6:57 *204:12 0.000181339
72 *6:57 *288:10 0.000181335
73 *6:57 *319:35 0.000836422
74 *6:63 *138:12 0
75 *6:71 *7:43 1.54556e-05
76 *6:71 *7:49 0.000274582
77 *6:71 *278:32 0
78 *6:71 *282:122 0
79 *6:71 *284:139 0
80 *6:73 *284:116 0
81 *6:73 *284:131 0
82 *6:73 *284:139 0.000922306
83 *6:73 *305:12 0
84 *6:81 *284:116 0
85 *6:94 *2330:B 0.000529574
86 *6:94 *7:74 0
87 *6:94 *7:161 1.54008e-05
88 *6:110 *2330:B 0
89 *6:110 *7:80 6.48261e-05
90 *6:110 *7:161 4.77425e-05
91 *6:110 *282:8 2.14736e-05
92 *6:118 *7:80 1.54008e-05
93 *6:118 *7:82 0.000177413
94 *6:118 *279:18 0
95 *6:118 *291:16 0
96 *6:126 output_o[30] 0
97 *6:126 *7:84 0.000323897
98 *6:126 *7:90 1.54556e-05
99 *6:126 *7:128 0.000176866
100 *6:126 *270:30 0.000306734
101 *6:126 *284:20 0
102 *6:144 *2417:C 0.000209323
103 *6:144 *7:128 0.000128277
104 *6:144 *285:10 0.000286343
105 *6:150 output_o[30] 0
106 *6:150 *2417:C 4.77425e-05
107 *6:150 *279:22 0.000240326
108 *2319:B *6:94 8.00496e-05
109 *2325:B *6:110 4.77425e-05
110 *2425:A *6:13 6.46834e-05
111 *2425:A *6:19 1.53666e-05
112 *3:95 *2418:B 1.54008e-05
113 *3:112 *6:150 0.000112426
114 *3:248 *2421:B 6.39133e-05
115 *4:25 *6:110 0
116 *4:29 *6:110 0
117 *5:9 *6:73 0.000388191
118 *5:9 *6:81 0.000599055
119 *5:94 *6:81 0
*RES
1 input_ni[2] *6:11 33.081 
2 *6:11 *6:13 18.4885 
3 *6:13 *6:19 4.944 
4 *6:19 *6:29 5.3972 
5 *6:29 *6:39 43.2136 
6 *6:39 *6:43 20.8446 
7 *6:43 *6:47 21.8334 
8 *6:47 *6:57 46.6744 
9 *6:57 *6:63 40.3502 
10 *6:63 *6:71 43.1106 
11 *6:71 *6:73 9.6202 
12 *6:73 *6:81 45.8298 
13 *6:81 *2283:A 20 
14 *6:81 *6:94 5.7577 
15 *6:94 *6:110 45.1615 
16 *6:110 *6:118 4.7998 
17 *6:118 *6:120 20 
18 *6:120 *6:126 23.3578 
19 *6:126 *2315:A 22.1836 
20 *6:126 *2317:A 20 
21 *6:120 *6:144 21.5862 
22 *6:144 *6:150 4.2333 
23 *6:150 *2323:A 23.7801 
24 *6:150 *2418:B 20.3193 
25 *6:144 *2417:B 20 
26 *6:118 *2311:A 20 
27 *6:110 *2325:C 20 
28 *6:94 *2319:C 20 
29 *6:73 *2284:A_N 20 
30 *6:63 *2296:B 20 
31 *6:47 *2295:B_N 20 
32 *6:43 *2421:B 41.7664 
33 *6:29 *2360:A 20 
34 *6:19 *2362:A 20 
35 *6:13 *2425:B 20 
*END

*D_NET *7 0.035996
*CONN
*P input_ni[3] I
*I *2425:C I *D sg13g2_nor4_1
*I *2362:B I *D sg13g2_nor4_1
*I *2360:B I *D sg13g2_nor4_1
*I *2421:C I *D sg13g2_nor4_1
*I *2295:A I *D sg13g2_nor2b_1
*I *2296:A_N I *D sg13g2_nand2b_1
*I *2283:B_N I *D sg13g2_nor2b_1
*I *2319:D I *D sg13g2_nor4_1
*I *2325:D I *D sg13g2_nand4_1
*I *2417:C I *D sg13g2_nor4_1
*I *2311:B I *D sg13g2_nor2_1
*I *2317:B I *D sg13g2_nor4_1
*I *2315:B I *D sg13g2_nor4_1
*I *2418:C I *D sg13g2_or4_1
*I *2323:B I *D sg13g2_nand2_1
*I *2284:B I *D sg13g2_nand2b_1
*CAP
1 input_ni[3] 6.0183e-05
2 *2425:C 0.000256664
3 *2362:B 0
4 *2360:B 0
5 *2421:C 0
6 *2295:A 3.45874e-05
7 *2296:A_N 0
8 *2283:B_N 0
9 *2319:D 0
10 *2325:D 0
11 *2417:C 0.000158318
12 *2311:B 2.87488e-05
13 *2317:B 0
14 *2315:B 0
15 *2418:C 1.79138e-05
16 *2323:B 0.000259839
17 *2284:B 3.65678e-05
18 *7:215 0.00020301
19 *7:202 0.00012737
20 *7:191 0.000136792
21 *7:161 0.000212573
22 *7:128 0.000306277
23 *7:98 0.000516468
24 *7:90 0.000453802
25 *7:84 0.000457801
26 *7:82 0.000719612
27 *7:80 0.000809729
28 *7:74 0.00116746
29 *7:68 0.000988724
30 *7:53 0.00155408
31 *7:49 0.00121489
32 *7:43 0.00102883
33 *7:37 0.00109994
34 *7:33 0.000725567
35 *7:23 0.000979007
36 *7:21 0.000960429
37 *7:17 0.00152964
38 *7:13 0.00602249
39 *7:11 0.00508448
40 *2284:B *276:16 7.30101e-05
41 *2295:A *277:8 7.48105e-05
42 *2295:A *288:10 0.00010637
43 *2323:B *278:84 8.00496e-05
44 *2417:C *268:92 0
45 *2417:C *279:10 0
46 *2417:C *279:18 8.00842e-05
47 *2417:C *285:10 0
48 *2425:C *2371:B 0
49 *2425:C *171:10 0
50 *2425:C *304:18 0
51 *7:17 *171:10 0
52 *7:17 *304:18 0
53 *7:21 *2364:A 0.000144361
54 *7:21 *328:44 0
55 *7:23 *2364:A 0.000786222
56 *7:23 *284:171 0
57 *7:23 *328:44 0
58 *7:33 *2364:A 0.000208681
59 *7:33 *266:12 0
60 *7:33 *284:171 0
61 *7:33 *295:30 0
62 *7:37 *2364:A 0
63 *7:37 *295:30 0
64 *7:43 *2354:A 0
65 *7:43 *2364:A 0
66 *7:43 *161:12 0
67 *7:43 *204:12 0
68 *7:43 *270:158 4.77699e-05
69 *7:43 *278:10 0
70 *7:43 *278:32 0
71 *7:43 *284:139 0
72 *7:43 *284:171 0
73 *7:43 *285:30 1.54008e-05
74 *7:43 *288:10 0.000233967
75 *7:43 *295:30 0
76 *7:49 *284:139 1.54282e-05
77 *7:53 *276:20 4.669e-05
78 *7:53 *282:108 0
79 *7:53 *306:12 0
80 *7:53 *317:27 0
81 *7:53 *319:35 0.00113066
82 *7:68 *2321:A 5.15366e-05
83 *7:68 *2330:B 0
84 *7:68 *276:16 7.30101e-05
85 *7:68 *284:116 0
86 *7:74 *284:20 9.70527e-05
87 *7:74 *284:116 0
88 *7:80 *284:20 0.00017744
89 *7:82 *284:20 0.000532866
90 *7:84 *270:30 0
91 *7:84 *276:30 4.79124e-05
92 *7:84 *284:24 0
93 *7:84 *284:42 0
94 *7:90 *276:30 0.000160527
95 *7:98 output_o[29] 0.000388332
96 *7:98 *268:52 0
97 *7:98 *270:30 0
98 *7:98 *276:30 3.23694e-05
99 *7:98 *276:40 1.54008e-05
100 *7:98 *282:99 7.3287e-05
101 *7:98 *291:32 7.30101e-05
102 *7:128 *279:10 0
103 *7:161 *116:12 0
104 *7:161 *283:8 0
105 *7:191 *266:12 0
106 *7:215 *2362:C 0.000143512
107 *7:215 *44:16 0.000392702
108 *7:215 *284:171 0.000392702
109 *2315:A *7:90 0.000129643
110 *2315:A *7:98 1.54556e-05
111 *2319:B *7:74 1.53662e-05
112 *2323:A *2323:B 4.77425e-05
113 *2323:A *2418:C 1.61708e-05
114 *2325:B *7:80 0.000144291
115 *2421:B *7:191 0.00022922
116 *2425:A *2425:C 0.000126005
117 *2425:A *7:21 0
118 *3:80 *2323:B 0
119 *4:35 *7:161 0.000180329
120 *5:52 *7:161 7.30101e-05
121 *5:63 *7:80 0
122 *6:19 *7:21 0
123 *6:19 *7:215 0.000191395
124 *6:39 *7:202 0.000179814
125 *6:43 *7:33 0
126 *6:47 *7:37 0.00027282
127 *6:57 *7:37 1.54008e-05
128 *6:57 *7:43 0
129 *6:71 *7:43 1.54556e-05
130 *6:71 *7:49 0.000274582
131 *6:94 *7:74 0
132 *6:94 *7:161 1.54008e-05
133 *6:110 *7:80 6.48261e-05
134 *6:110 *7:161 4.77425e-05
135 *6:118 *7:80 1.54008e-05
136 *6:118 *7:82 0.000177413
137 *6:126 *7:84 0.000323897
138 *6:126 *7:90 1.54556e-05
139 *6:126 *7:128 0.000176866
140 *6:144 *2417:C 0.000209323
141 *6:144 *7:128 0.000128277
142 *6:150 *2417:C 4.77425e-05
*RES
1 input_ni[3] *7:11 20.9682 
2 *7:11 *7:13 63.2626 
3 *7:13 *7:17 30.4854 
4 *7:17 *7:21 22.9149 
5 *7:21 *7:23 5.2942 
6 *7:23 *7:33 43.4917 
7 *7:33 *7:37 22.0497 
8 *7:37 *7:43 27.313 
9 *7:43 *7:49 41.8334 
10 *7:49 *7:53 30.0528 
11 *7:53 *2284:B 40.3502 
12 *7:53 *7:68 24.5938 
13 *7:68 *7:74 4.6659 
14 *7:74 *7:80 4.2333 
15 *7:80 *7:82 3.7801 
16 *7:82 *7:84 2.4823 
17 *7:84 *7:90 2.2866 
18 *7:90 *7:98 42.8943 
19 *7:98 *2323:B 22.3999 
20 *7:98 *2418:C 20.2111 
21 *7:90 *2315:B 20 
22 *7:84 *2317:B 20 
23 *7:82 *7:128 21.339 
24 *7:128 *2311:B 40.3193 
25 *7:128 *2417:C 41.8746 
26 *7:80 *2325:D 20 
27 *7:74 *7:161 41.9055 
28 *7:161 *2319:D 20 
29 *7:68 *2283:B_N 20 
30 *7:43 *2296:A_N 20 
31 *7:37 *2295:A 40.5974 
32 *7:33 *7:191 41.339 
33 *7:191 *2421:C 20 
34 *7:23 *7:202 41.339 
35 *7:202 *2360:B 20 
36 *7:21 *7:215 43.126 
37 *7:215 *2362:B 20 
38 *7:17 *2425:C 42.575 
*END

*D_NET *8 0.0482519
*CONN
*P input_ni[4] I
*I *2536:B I *D sg13g2_nor3_1
*I *2433:A I *D sg13g2_nand2_1
*I *2366:A I *D sg13g2_nor2_1
*I *2287:A I *D sg13g2_nor2b_1
*I *2288:A_N I *D sg13g2_nand2b_1
*I *2326:B_N I *D sg13g2_nor2b_1
*I *2327:B I *D sg13g2_nand2b_1
*I *2570:B I *D sg13g2_and3_1
*I *2571:B I *D sg13g2_nand3_1
*CAP
1 input_ni[4] 0.0013132
2 *2536:B 0
3 *2433:A 0
4 *2366:A 0
5 *2287:A 0
6 *2288:A_N 0
7 *2326:B_N 0
8 *2327:B 7.39545e-05
9 *2570:B 0
10 *2571:B 0
11 *8:125 0.00321409
12 *8:101 0.000247294
13 *8:80 0.00021661
14 *8:53 0.000185408
15 *8:47 0.000333277
16 *8:45 0.000300219
17 *8:41 0.00036288
18 *8:39 0.000683992
19 *8:29 0.00122102
20 *8:11 0.00121225
21 *8:9 0.00629186
22 *8:7 0.0104591
23 *2327:B *10:122 0.000112568
24 *8:7 *324:57 0.000176083
25 *8:9 *9:11 0
26 *8:9 *10:44 0.00370874
27 *8:9 *10:56 0.00351497
28 *8:9 *313:60 0.00143904
29 *8:9 *313:77 0
30 *8:9 *315:28 0.00419476
31 *8:11 *9:20 0
32 *8:11 *10:87 0.000242213
33 *8:11 *313:60 0.000598337
34 *8:29 *2469:A_N 0.00045211
35 *8:29 *9:20 0.000825725
36 *8:29 *10:87 0.000291556
37 *8:29 *10:89 6.49135e-05
38 *8:29 *10:116 0
39 *8:29 *271:37 0.000178041
40 *8:29 *300:12 0
41 *8:29 *313:50 0.000112418
42 *8:39 *10:122 0
43 *8:39 *271:12 0.000488446
44 *8:39 *271:37 4.77425e-05
45 *8:41 *271:12 4.77425e-05
46 *8:45 *313:50 0
47 *8:47 *2570:C 0.000177413
48 *8:47 *10:122 0
49 *8:47 *313:50 0
50 *8:53 *10:157 0.00022762
51 *8:53 *344:12 0
52 *8:80 *9:26 0.000178518
53 *8:80 *309:43 0
54 *8:101 *2288:B 1.54008e-05
55 *8:101 *293:12 0.000124547
56 *8:101 *293:24 0.000111252
57 *8:101 *328:48 0
58 *8:125 *9:11 0
59 *8:125 *9:103 0
60 *8:125 *10:34 0.00053252
61 *8:125 *10:36 0
62 *8:125 *10:44 0.00131205
63 *8:125 *330:45 0.002962
*RES
1 input_ni[4] *8:7 35.1307 
2 *8:7 *8:9 63.6952 
3 *8:9 *8:11 3.9964 
4 *8:11 *8:29 49.4966 
5 *8:29 *8:39 3.98095 
6 *8:39 *8:41 0.7519 
7 *8:41 *8:45 0.8858 
8 *8:45 *8:47 1.6171 
9 *8:47 *8:53 41.5862 
10 *8:53 *2571:B 20 
11 *8:47 *2570:B 20 
12 *8:45 *2327:B 21.1021 
13 *8:41 *8:80 41.9055 
14 *8:80 *2326:B_N 20 
15 *8:39 *8:101 42.5338 
16 *8:101 *2288:A_N 20 
17 *8:29 *2287:A 20 
18 *8:11 *2366:A 20 
19 *8:9 *2433:A 20 
20 *8:7 *8:125 32.033 
21 *8:125 *2536:B 20 
*END

*D_NET *9 0.0525
*CONN
*P input_ni[5] I
*I *2536:C I *D sg13g2_nor3_1
*I *2366:B I *D sg13g2_nor2_1
*I *2287:B_N I *D sg13g2_nor2b_1
*I *2326:A I *D sg13g2_nor2b_1
*I *2327:A_N I *D sg13g2_nand2b_1
*I *2288:B I *D sg13g2_nand2b_1
*I *2571:C I *D sg13g2_nand3_1
*I *2570:C I *D sg13g2_and3_1
*I *2433:B I *D sg13g2_nand2_1
*CAP
1 input_ni[5] 0.00236014
2 *2536:C 0
3 *2366:B 0
4 *2287:B_N 0
5 *2326:A 0
6 *2327:A_N 0
7 *2288:B 2.29947e-05
8 *2571:C 0.000257035
9 *2570:C 0.000170167
10 *2433:B 0
11 *9:103 0.000223142
12 *9:88 0.000491572
13 *9:45 0.000430501
14 *9:30 0.000385411
15 *9:26 0.000137432
16 *9:22 0.000397995
17 *9:20 0.00146696
18 *9:11 0.0113477
19 *9:9 0.0122978
20 *2288:B *329:47 4.77702e-05
21 *2570:C *10:122 0.000129643
22 *2570:C *10:126 4.77702e-05
23 *2571:C *10:122 0
24 *2571:C *272:22 0.000112426
25 *2571:C *329:47 0.000112648
26 *9:9 *311:77 0.00192637
27 *9:9 *314:86 0
28 *9:9 *324:59 0.00161933
29 *9:9 *342:10 0
30 *9:11 *10:56 0.00351525
31 *9:11 *300:14 0
32 *9:11 *315:38 0.00244421
33 *9:11 *324:59 0.00474581
34 *9:11 *330:45 0.00296395
35 *9:20 *10:87 0.000274812
36 *9:20 *300:14 0.000663853
37 *9:20 *313:50 0.000274413
38 *9:20 *339:12 0
39 *9:20 *341:14 0
40 *9:22 *292:10 0.000533424
41 *9:22 *313:50 0.000598107
42 *9:26 *271:12 0.000126829
43 *9:26 *293:24 7.30101e-05
44 *9:30 *293:24 3.71985e-05
45 *9:45 *293:12 0.000104489
46 *9:45 *293:24 7.30101e-05
47 *9:88 *2435:A 1.54008e-05
48 *9:88 *2436:A 0
49 *9:88 *10:87 0.000229534
50 *9:88 *304:26 0
51 *9:88 *313:60 0.000598479
52 *9:88 *325:50 0
53 *9:103 *2536:A 0
54 *9:103 *10:34 0
55 *9:103 *330:57 4.63449e-05
56 *9:103 *342:10 0
57 *8:9 *9:11 0
58 *8:11 *9:20 0
59 *8:29 *9:20 0.000825725
60 *8:47 *2570:C 0.000177413
61 *8:80 *9:26 0.000178518
62 *8:101 *2288:B 1.54008e-05
63 *8:125 *9:11 0
64 *8:125 *9:103 0
*RES
1 input_ni[5] *9:9 47.9336 
2 *9:9 *9:11 95.4913 
3 *9:11 *2433:B 20 
4 *9:11 *9:20 12.1334 
5 *9:20 *9:22 3.9964 
6 *9:22 *9:26 21.0918 
7 *9:26 *9:30 0.6695 
8 *9:30 *2570:C 42.1527 
9 *9:30 *9:45 21.339 
10 *9:45 *2571:C 22.5029 
11 *9:45 *2288:B 20.3193 
12 *9:26 *2327:A_N 40 
13 *9:22 *2326:A 20 
14 *9:20 *2287:B_N 20 
15 *9:11 *9:88 45.0882 
16 *9:88 *2366:B 20 
17 *9:9 *9:103 41.9364 
18 *9:103 *2536:C 20 
*END

*D_NET *10 0.0621489
*CONN
*P input_ni[6] I
*I *2537:A_N I *D sg13g2_nand2b_1
*I *2502:A I *D sg13g2_nor2_1
*I *2468:A I *D sg13g2_nor2_1
*I *2434:A I *D sg13g2_nor2_1
*I *2368:A I *D sg13g2_nand2_1
*I *2367:A I *D sg13g2_and2_1
*I *2503:A_N I *D sg13g2_nand2b_1
*I *2571:A I *D sg13g2_nand3_1
*I *2570:A I *D sg13g2_and3_1
*I *2290:B I *D sg13g2_nand2b_1
*I *2289:B_N I *D sg13g2_nor2b_1
*I *2469:A_N I *D sg13g2_nand2b_1
*I *2435:A I *D sg13g2_or2_1
*I *2536:A I *D sg13g2_nor3_1
*CAP
1 input_ni[6] 0.000365413
2 *2537:A_N 0
3 *2502:A 0
4 *2468:A 0
5 *2434:A 0.000184564
6 *2368:A 0
7 *2367:A 0
8 *2503:A_N 0
9 *2571:A 0
10 *2570:A 0
11 *2290:B 0
12 *2289:B_N 0
13 *2469:A_N 0.000369813
14 *2435:A 3.10612e-05
15 *2536:A 4.33565e-05
16 *10:157 0.000214963
17 *10:134 0.000206587
18 *10:128 0.000591414
19 *10:126 0.000503468
20 *10:122 0.00100904
21 *10:116 0.00126182
22 *10:106 0.000749412
23 *10:89 0.000573837
24 *10:87 0.000756768
25 *10:73 0.000937166
26 *10:60 0.00153579
27 *10:56 0.00347194
28 *10:50 0.00213666
29 *10:44 0.00414037
30 *10:36 0.00521904
31 *10:34 0.00167838
32 *10:17 0.00150477
33 *10:9 0.00612458
34 *10:7 0.00549566
35 *2434:A output_no[65] 2.1786e-05
36 *2434:A *2434:B 0
37 *2434:A *2436:A 0
38 *2434:A *306:28 0
39 *2434:A *337:28 0
40 *2435:A *2436:A 4.77425e-05
41 *2469:A_N *271:37 1.54008e-05
42 *2469:A_N *302:14 0.00027467
43 *2469:A_N *313:60 0
44 *10:17 *313:99 0
45 *10:34 *315:48 0
46 *10:34 *330:57 0
47 *10:36 *313:85 0.00163305
48 *10:44 *313:77 0
49 *10:44 *313:85 0.00216993
50 *10:60 output_o[66] 0
51 *10:60 *2436:A 4.77425e-05
52 *10:60 *308:32 0.000144217
53 *10:60 *313:60 0
54 *10:60 *313:77 0.000921934
55 *10:60 *336:20 0
56 *10:60 *336:28 0.000242098
57 *10:60 *336:35 0.000323897
58 *10:60 *336:42 0.000258896
59 *10:60 *336:49 0.000582723
60 *10:60 *336:56 0.00032381
61 *10:60 *337:60 0
62 *10:73 output_no[65] 0
63 *10:73 *2436:A 5.4934e-05
64 *10:87 *2434:B 5.4934e-05
65 *10:87 *300:33 0.000144842
66 *10:87 *335:8 0.000228333
67 *10:89 *300:33 0
68 *10:89 *302:14 4.77702e-05
69 *10:89 *313:60 0
70 *10:106 *300:12 0
71 *10:106 *300:39 0
72 *10:106 *302:14 0
73 *10:116 *2427:A 4.78853e-05
74 *10:116 *2427:B 0
75 *10:116 *271:37 1.51734e-05
76 *10:116 *301:8 0
77 *10:116 *313:60 0.000501197
78 *10:116 *329:47 0
79 *10:116 *329:55 0
80 *10:116 *341:10 0
81 *10:122 *272:22 0
82 *10:122 *293:12 8.00842e-05
83 *10:122 *329:47 0
84 *10:126 *313:50 0
85 *10:126 *344:12 4.7885e-05
86 *10:128 *2328:B 0
87 *10:128 *293:51 0
88 *10:128 *313:50 0
89 *10:128 *344:12 0
90 *10:134 *275:8 0.000125014
91 *10:157 *272:22 0
92 *10:157 *345:8 0
93 *2290:A_N *10:128 1.54008e-05
94 *2327:B *10:122 0.000112568
95 *2570:C *10:122 0.000129643
96 *2570:C *10:126 4.77702e-05
97 *2571:C *10:122 0
98 *3:353 *10:134 0
99 *8:9 *10:44 0.00370874
100 *8:9 *10:56 0.00351497
101 *8:11 *10:87 0.000242213
102 *8:29 *2469:A_N 0.00045211
103 *8:29 *10:87 0.000291556
104 *8:29 *10:89 6.49135e-05
105 *8:29 *10:116 0
106 *8:39 *10:122 0
107 *8:47 *10:122 0
108 *8:53 *10:157 0.00022762
109 *8:125 *10:34 0.00053252
110 *8:125 *10:36 0
111 *8:125 *10:44 0.00131205
112 *9:11 *10:56 0.00351525
113 *9:20 *10:87 0.000274812
114 *9:88 *2435:A 1.54008e-05
115 *9:88 *10:87 0.000229534
116 *9:103 *2536:A 0
117 *9:103 *10:34 0
*RES
1 input_ni[6] *10:7 24.7483 
2 *10:7 *10:9 58.7203 
3 *10:9 *10:17 30.6605 
4 *10:17 *2536:A 40.5356 
5 *10:17 *10:34 24.5114 
6 *10:34 *10:36 11.7832 
7 *10:36 *10:44 41.5708 
8 *10:44 *10:50 40.8446 
9 *10:50 *10:56 44.5552 
10 *10:56 *10:60 35.4603 
11 *10:60 *2435:A 20.3193 
12 *10:60 *10:73 20.5768 
13 *10:73 *10:87 28.3121 
14 *10:87 *10:89 0.5356 
15 *10:89 *2469:A_N 24.017 
16 *10:89 *10:106 41.0918 
17 *10:106 *10:116 6.351 
18 *10:116 *10:122 6.2995 
19 *10:122 *10:126 1.3493 
20 *10:126 *10:128 3.5638 
21 *10:128 *10:134 41.5862 
22 *10:134 *2289:B_N 20 
23 *10:128 *2290:B 20 
24 *10:126 *2570:A 20 
25 *10:122 *10:157 41.9055 
26 *10:157 *2571:A 20 
27 *10:116 *2503:A_N 20 
28 *10:106 *2367:A 20 
29 *10:87 *2368:A 20 
30 *10:73 *2434:A 41.4317 
31 *10:44 *2468:A 20 
32 *10:36 *2502:A 20 
33 *10:34 *2537:A_N 20 
*END

*D_NET *11 0.0188029
*CONN
*P output_no[0] O
*I *2573:Y O *D sg13g2_nand2_1
*CAP
1 output_no[0] 0.000386993
2 *2573:Y 0.000225776
3 *11:12 0.00593344
4 *11:10 0.00554645
5 *11:8 0.000225776
6 output_no[0] output_o[0] 6.4081e-05
7 output_no[0] output_o[1] 0
8 *11:8 *320:22 0.000227899
9 *11:8 *344:173 7.59811e-05
10 *11:12 *33:14 0.00611649
11 *11:12 *244:12 0
12 *11:12 *275:91 0
13 *11:12 *297:12 0
14 *11:12 *307:10 0
*RES
1 *2573:Y *11:8 42.0806 
2 *11:8 *11:10 20 
3 *11:10 *11:12 68.8864 
4 *11:12 output_no[0] 24.7483 
*END

*D_NET *12 0.000743578
*CONN
*P output_no[100] O
*I *2513:Y O *D sg13g2_nand2_1
*CAP
1 output_no[100] 0.000186041
2 *2513:Y 0.000186041
3 output_no[100] output_o[100] 0.000371497
*RES
1 *2513:Y output_no[100] 41.7819 
*END

*D_NET *13 0.00182845
*CONN
*P output_no[101] O
*I *2515:Y O *D sg13g2_nand2_1
*CAP
1 output_no[101] 0.000387066
2 *2515:Y 0.000387066
3 output_no[101] output_o[101] 0.000543932
4 output_no[101] *2551:A 0.000209977
5 output_no[101] *314:84 0.000179341
6 output_no[101] *315:48 7.33256e-05
7 output_no[101] *340:62 4.77425e-05
*RES
1 *2515:Y output_no[101] 44.5011 
*END

*D_NET *14 0.00234348
*CONN
*P output_no[102] O
*I *2517:Y O *D sg13g2_nand2_1
*CAP
1 output_no[102] 0.000429125
2 *2517:Y 0.000429125
3 output_no[102] output_o[102] 0.000526106
4 output_no[102] *2516:A 0
5 output_no[102] *2517:A 4.79124e-05
6 output_no[102] *2551:A 0
7 output_no[102] *315:48 0
8 output_no[102] *334:93 0.000685749
9 output_no[102] *340:62 4.79124e-05
10 output_no[102] *340:69 0.000177555
11 output_no[102] *342:10 0
*RES
1 *2517:Y output_no[102] 45.1603 
*END

*D_NET *15 0.00157347
*CONN
*P output_no[103] O
*I *2519:Y O *D sg13g2_nand2_1
*CAP
1 output_no[103] 0.00037987
2 *2519:Y 0.00037987
3 output_no[103] output_o[103] 0.000578117
4 output_no[103] *2553:A 0.000160972
5 output_no[103] *317:85 7.46398e-05
6 output_no[103] *318:76 0
*RES
1 *2519:Y output_no[103] 43.7595 
*END

*D_NET *16 0.000714552
*CONN
*P output_no[104] O
*I *2521:Y O *D sg13g2_nand2_1
*CAP
1 output_no[104] 0.000170205
2 *2521:Y 0.000170205
3 output_no[104] output_o[104] 0.000374143
*RES
1 *2521:Y output_no[104] 41.7819 
*END

*D_NET *17 0.00121118
*CONN
*P output_no[105] O
*I *2523:Y O *D sg13g2_nand2_1
*CAP
1 output_no[105] 0.000341468
2 *2523:Y 0.000341468
3 output_no[105] output_o[105] 0.000322606
4 output_no[105] *35:10 0
5 output_no[105] *340:103 8.00444e-05
6 output_no[105] *341:129 0
7 output_no[105] *343:46 0.00012559
*RES
1 *2523:Y output_no[105] 43.3063 
*END

*D_NET *18 0.0016065
*CONN
*P output_no[106] O
*I *2525:Y O *D sg13g2_nand2_1
*CAP
1 output_no[106] 0.000346812
2 *2525:Y 0.000346812
3 output_no[106] output_o[106] 0.00057973
4 output_no[106] *2525:A 0.000177497
5 output_no[106] *323:84 0.000155653
*RES
1 *2525:Y output_no[106] 43.7595 
*END

*D_NET *19 0.000742317
*CONN
*P output_no[107] O
*I *2527:Y O *D sg13g2_nand2_1
*CAP
1 output_no[107] 0.00018541
2 *2527:Y 0.00018541
3 output_no[107] output_o[107] 0.000371497
*RES
1 *2527:Y output_no[107] 41.7819 
*END

*D_NET *20 0.00121508
*CONN
*P output_no[108] O
*I *2529:Y O *D sg13g2_nand2_1
*CAP
1 output_no[108] 0.000367175
2 *2529:Y 0.000367175
3 output_no[108] output_o[108] 0.00032146
4 output_no[108] *2529:A 0
5 output_no[108] *327:79 0
6 output_no[108] *340:149 8.00425e-05
7 output_no[108] *343:76 7.92265e-05
*RES
1 *2529:Y output_no[108] 43.3063 
*END

*D_NET *21 0.00166465
*CONN
*P output_no[109] O
*I *2531:Y O *D sg13g2_nand2_1
*CAP
1 output_no[109] 0.000346484
2 *2531:Y 0.000346484
3 output_no[109] output_o[109] 0.00058271
4 output_no[109] *2564:A 0.000208949
5 output_no[109] *329:104 0
6 output_no[109] *330:57 0.000180021
*RES
1 *2531:Y output_no[109] 43.7595 
*END

*D_NET *22 0.0196844
*CONN
*P output_no[10] O
*I *2593:Y O *D sg13g2_nand2_1
*CAP
1 output_no[10] 0.000144145
2 *2593:Y 0.000199223
3 *22:12 0.00766533
4 *22:10 0.00752119
5 *22:8 0.000199223
6 output_no[10] output_o[10] 0.000323415
7 *22:8 *281:124 0
8 *22:8 *323:8 0
9 *22:12 *83:14 0.00136003
10 *22:12 *211:16 7.93742e-05
11 *22:12 *255:14 0
12 *22:12 *275:40 0
13 *22:12 *287:31 0
14 *22:12 *296:46 0
15 *22:12 *298:12 0
16 *22:12 *314:25 0
17 *22:12 *325:25 0.000145836
18 *22:12 *328:133 0.00204664
*RES
1 *2593:Y *22:8 41.339 
2 *22:8 *22:10 20 
3 *22:10 *22:12 81.8644 
4 *22:12 output_no[10] 21.5347 
*END

*D_NET *23 0.00069697
*CONN
*P output_no[110] O
*I *2533:Y O *D sg13g2_nand2_1
*CAP
1 output_no[110] 0.000161237
2 *2533:Y 0.000161237
3 output_no[110] output_o[110] 0.000374497
4 output_no[110] *332:92 0
5 output_no[110] *334:105 0
*RES
1 *2533:Y output_no[110] 41.7819 
*END

*D_NET *24 0.00153403
*CONN
*P output_no[111] O
*I *2535:Y O *D sg13g2_nand2_1
*CAP
1 output_no[111] 0.000461064
2 *2535:Y 0.000461064
3 output_no[111] output_o[111] 0.000532452
4 output_no[111] *39:10 0
5 output_no[111] *309:76 0
6 output_no[111] *333:109 7.94445e-05
7 output_no[111] *343:127 0
*RES
1 *2535:Y output_no[111] 44.2951 
*END

*D_NET *25 0.00123776
*CONN
*P output_no[112] O
*I *2539:Y O *D sg13g2_nand2_1
*CAP
1 output_no[112] 0.000294321
2 *2539:Y 0.000294321
3 output_no[112] output_o[112] 0.00039427
4 output_no[112] *307:72 0.000111202
5 output_no[112] *313:117 0
6 output_no[112] *342:161 0.000143649
*RES
1 *2539:Y output_no[112] 43.3887 
*END

*D_NET *26 0.0018683
*CONN
*P output_no[113] O
*I *2541:Y O *D sg13g2_nand2_1
*CAP
1 output_no[113] 0.000617781
2 *2541:Y 0.000617781
3 output_no[113] output_o[113] 6.22773e-05
4 output_no[113] output_o[114] 0
5 output_no[113] *2541:B 1.54008e-05
6 output_no[113] *29:8 0
7 output_no[113] *40:20 0
8 output_no[113] *41:12 0
9 output_no[113] *311:85 0.000280554
10 output_no[113] *343:157 0.000274505
*RES
1 *2541:Y output_no[113] 46.4993 
*END

*D_NET *27 0.0018614
*CONN
*P output_no[114] O
*I *2543:Y O *D sg13g2_nand2_1
*CAP
1 output_no[114] 0.000667631
2 *2543:Y 0.000667631
3 output_no[114] output_no[116] 7.9225e-05
4 output_no[114] output_o[114] 0.000270236
5 output_no[114] *2539:A 0
6 output_no[114] *2549:A 0.000176674
7 output_no[114] *30:10 0
8 output_no[114] *39:14 0
9 output_no[114] *334:116 0
10 output_no[114] *342:168 0
*RES
1 *2543:Y output_no[114] 46.3139 
*END

*D_NET *28 0.00282088
*CONN
*P output_no[115] O
*I *2545:Y O *D sg13g2_nand2_1
*CAP
1 output_no[115] 0.00061987
2 *2545:Y 0.000562553
3 *28:8 0.00118242
4 output_no[115] output_o[115] 0.000166851
5 output_no[115] *156:8 0
6 output_no[115] *343:175 0
7 *28:8 *40:20 0
8 *28:8 *40:24 0
9 *28:8 *311:77 0
10 *28:8 *312:64 0.000273729
11 *28:8 *314:86 0
12 *28:8 *342:187 1.54556e-05
*RES
1 *2545:Y *28:8 45.2942 
2 *28:8 output_no[115] 4.7483 
*END

*D_NET *29 0.00326465
*CONN
*P output_no[116] O
*I *2547:Y O *D sg13g2_nand2_1
*CAP
1 output_no[116] 0.000653377
2 *2547:Y 0.000167713
3 *29:8 0.000821089
4 output_no[116] output_o[115] 0.000242483
5 output_no[116] output_o[116] 0.000218387
6 output_no[116] *30:10 0.000695735
7 output_no[116] *39:14 0
8 *29:8 output_o[114] 0.000386643
9 output_no[113] *29:8 0
10 output_no[114] output_no[116] 7.9225e-05
*RES
1 *2547:Y *29:8 41.8334 
2 *29:8 output_no[116] 46.7671 
*END

*D_NET *30 0.00370836
*CONN
*P output_no[117] O
*I *2549:Y O *D sg13g2_nand2_1
*CAP
1 output_no[117] 0.000116629
2 *2549:Y 0.00121406
3 *30:10 0.00133069
4 output_no[117] output_o[117] 0.000271387
5 *30:10 output_o[117] 0
6 *30:10 *39:14 0
7 *30:10 *168:10 0
8 *30:10 *314:94 7.98582e-05
9 output_no[114] *30:10 0
10 output_no[116] *30:10 0.000695735
*RES
1 *2549:Y *30:10 31.1858 
2 *30:10 output_no[117] 21.2875 
*END

*D_NET *31 0.0121492
*CONN
*P output_no[118] O
*I *2551:Y O *D sg13g2_nand2_1
*CAP
1 output_no[118] 9.13341e-05
2 *2551:Y 0.000229448
3 *31:12 0.00382522
4 *31:10 0.00373389
5 *31:8 0.000229448
6 output_no[118] output_o[118] 0.000220038
7 *31:8 *334:93 0
8 *31:8 *342:29 0.000127874
9 *31:12 *35:14 0
10 *31:12 *160:12 0
11 *31:12 *325:108 0.00167662
12 *31:12 *327:75 0
13 *31:12 *328:99 0.00201533
*RES
1 *2551:Y *31:8 41.8334 
2 *31:8 *31:10 20 
3 *31:10 *31:12 40.3348 
4 *31:12 output_no[118] 21.0403 
*END

*D_NET *32 0.0180385
*CONN
*P output_no[119] O
*I *2553:Y O *D sg13g2_nand2_1
*CAP
1 output_no[119] 0.000329307
2 *2553:Y 6.5423e-05
3 *32:12 0.00352107
4 *32:10 0.00319176
5 *32:8 6.5423e-05
6 output_no[119] output_o[119] 0.00038237
7 *32:8 output_o[104] 0.0001255
8 *32:8 *341:119 0
9 *32:12 *34:12 0
10 *32:12 *36:10 0
11 *32:12 *163:12 0.00525341
12 *32:12 *166:14 0.00400894
13 *32:12 *321:69 0
14 *32:12 *326:106 0.00109524
*RES
1 *2553:Y *32:8 40.5974 
2 *32:8 *32:10 20 
3 *32:10 *32:12 38.8207 
4 *32:12 output_no[119] 23.6874 
*END

*D_NET *33 0.0349019
*CONN
*P output_no[11] O
*I *2595:Y O *D sg13g2_nand2_1
*CAP
1 output_no[11] 0.000333222
2 *2595:Y 0.000389053
3 *33:14 0.00673768
4 *33:12 0.00640445
5 *33:10 0.000389053
6 output_no[11] output_o[11] 0.000961217
7 *33:10 output_no[40] 0
8 *33:10 *138:12 0.000177411
9 *33:10 *277:69 0
10 *33:10 *281:86 0
11 *33:10 *328:28 0
12 *33:10 *344:90 0
13 *33:10 *344:117 7.86681e-05
14 *33:10 *345:76 0.000111037
15 *33:14 *244:12 0.00991208
16 *33:14 *303:12 0
17 *33:14 *307:10 0
18 *33:14 *310:57 0.0020359
19 *33:14 *315:12 0.00125566
20 *33:14 *320:37 0
21 *11:12 *33:14 0.00611649
*RES
1 *2595:Y *33:10 43.3269 
2 *33:10 *33:12 20 
3 *33:12 *33:14 76.4569 
4 *33:14 output_no[11] 24.5011 
*END

*D_NET *34 0.0177869
*CONN
*P output_no[120] O
*I *2555:Y O *D sg13g2_nand2_1
*CAP
1 output_no[120] 0.000387289
2 *2555:Y 3.46246e-05
3 *34:12 0.00354183
4 *34:10 0.00315454
5 *34:8 3.46246e-05
6 output_no[120] output_o[120] 0.000538807
7 *34:8 *2556:A 7.34778e-05
8 *34:12 *37:10 0.00483651
9 *34:12 *159:14 0
10 *34:12 *163:12 0
11 *34:12 *165:12 0.00493946
12 *34:12 *321:69 0.00024574
13 *32:12 *34:12 0
*RES
1 *2555:Y *34:8 40.3502 
2 *34:8 *34:10 20 
3 *34:10 *34:12 39.4696 
4 *34:12 output_no[120] 24.0067 
*END

*D_NET *35 0.00869042
*CONN
*P output_no[121] O
*I *2557:Y O *D sg13g2_nand2_1
*CAP
1 output_no[121] 3.11655e-05
2 *2557:Y 0.000236788
3 *35:14 0.00340918
4 *35:12 0.00337802
5 *35:10 0.000236788
6 output_no[121] output_o[121] 6.22773e-05
7 *35:10 *2558:B 7.30101e-05
8 *35:10 *333:76 0
9 *35:10 *333:82 0.000176239
10 *35:10 *341:129 0
11 *35:14 *36:10 0
12 *35:14 *162:10 0
13 *35:14 *327:75 0.00108695
14 output_no[105] *35:10 0
15 *31:12 *35:14 0
*RES
1 *2557:Y *35:10 42.1218 
2 *35:10 *35:12 20 
3 *35:12 *35:14 39.9022 
4 *35:14 output_no[121] 20.2987 
*END

*D_NET *36 0.0174743
*CONN
*P output_no[122] O
*I *2559:Y O *D sg13g2_nand2_1
*CAP
1 output_no[122] 0.0001772
2 *2559:Y 0
3 *36:10 0.00328527
4 *36:8 0.00310807
5 *36:6 0
6 output_no[122] output_o[122] 0.000596194
7 *36:10 *162:10 0.00508941
8 *36:10 *166:14 0.00521817
9 *32:12 *36:10 0
10 *35:14 *36:10 0
*RES
1 *2559:Y *36:6 40 
2 *36:6 *36:8 20 
3 *36:8 *36:10 39.037 
4 *36:10 output_no[122] 22.7707 
*END

*D_NET *37 0.0178204
*CONN
*P output_no[123] O
*I *2561:Y O *D sg13g2_nand2_1
*CAP
1 output_no[123] 0.000264076
2 *2561:Y 0
3 *37:10 0.00349615
4 *37:8 0.00323208
5 *37:6 0
6 output_no[123] output_o[123] 0.00080538
7 *37:10 *163:12 0.00518619
8 *37:10 *165:12 0
9 *37:10 *166:14 0
10 *34:12 *37:10 0.00483651
*RES
1 *2561:Y *37:6 40 
2 *37:6 *37:8 20 
3 *37:8 *37:10 39.6859 
4 *37:10 output_no[123] 23.7595 
*END

*D_NET *38 0.0164696
*CONN
*P output_no[124] O
*I *2563:Y O *D sg13g2_nand2_1
*CAP
1 output_no[124] 0.000331807
2 *2563:Y 0.000342711
3 *38:16 0.00308526
4 *38:14 0.00362516
5 *38:8 0.00121443
6 output_no[124] output_o[124] 0.000649271
7 *38:8 *2529:A 0.000177891
8 *38:8 *341:178 0.000177891
9 *38:14 *159:14 0.00132864
10 *38:14 *165:12 0
11 *38:16 *159:14 0
12 *38:16 *164:16 0.00116208
13 *38:16 *165:12 0.00437449
14 *38:16 *166:14 0
*RES
1 *2563:Y *38:8 43.0694 
2 *38:8 *38:14 29.1052 
3 *38:14 *38:16 31.6828 
4 *38:16 output_no[124] 24.5011 
*END

*D_NET *39 0.0120094
*CONN
*P output_no[125] O
*I *2565:Y O *D sg13g2_nand2_1
*CAP
1 output_no[125] 4.14549e-05
2 *2565:Y 0.000584033
3 *39:14 0.00360634
4 *39:12 0.00356488
5 *39:10 0.000584033
6 output_no[125] output_o[125] 6.4081e-05
7 *39:10 output_o[111] 4.77346e-05
8 *39:10 output_o[112] 0
9 *39:10 *2532:A 0
10 *39:10 *2532:B 0
11 *39:10 *2567:A 8.01116e-05
12 *39:10 *168:8 0
13 *39:10 *168:10 0
14 *39:10 *307:72 0
15 *39:10 *334:105 4.77425e-05
16 *39:10 *342:148 0.00032076
17 *39:10 *342:154 0.000177846
18 *39:10 *343:127 0.000282123
19 *39:14 output_o[115] 0.000242368
20 *39:14 output_o[125] 0.00231811
21 *39:14 *2539:A 4.77702e-05
22 *39:14 *167:16 0
23 *39:14 *168:10 0
24 *39:14 *307:72 0
25 *39:14 *342:168 0
26 output_no[111] *39:10 0
27 output_no[114] *39:14 0
28 output_no[116] *39:14 0
29 *30:10 *39:14 0
*RES
1 *2565:Y *39:10 45.8916 
2 *39:10 *39:12 20 
3 *39:12 *39:14 35.5762 
4 *39:14 output_no[125] 20.5459 
*END

*D_NET *40 0.010875
*CONN
*P output_no[126] O
*I *2567:Y O *D sg13g2_nand2_1
*CAP
1 output_no[126] 0.000285224
2 *2567:Y 0.000283808
3 *40:24 0.00345322
4 *40:20 0.00398104
5 *40:10 0.00109685
6 output_no[126] output_o[126] 0.000491656
7 *40:10 *2569:B 0.000175693
8 *40:10 *333:109 0.00011101
9 *40:20 *2541:B 4.77425e-05
10 *40:20 *2568:A 0.000112656
11 *40:20 *41:12 0
12 *40:20 *305:57 4.77425e-05
13 *40:20 *309:76 0
14 *40:20 *312:64 0.000241281
15 *40:20 *313:117 0.000241728
16 *40:20 *342:176 4.77425e-05
17 *40:20 *342:187 4.77425e-05
18 *40:20 *343:142 0.000209876
19 *40:20 *343:161 0
20 *40:24 *169:8 0
21 output_no[113] *40:20 0
22 *28:8 *40:20 0
23 *28:8 *40:24 0
*RES
1 *2567:Y *40:10 42.2763 
2 *40:10 *40:20 28.0752 
3 *40:20 *40:24 49.7361 
4 *40:24 output_no[126] 4.0067 
*END

*D_NET *41 0.0136802
*CONN
*P output_no[127] O
*I *2569:Y O *D sg13g2_nand2_1
*CAP
1 output_no[127] 0.000188262
2 *2569:Y 0.000166998
3 *41:12 0.00354563
4 *41:10 0.00352437
5 output_no[127] output_o[127] 0.000705444
6 *41:10 *168:10 0
7 *41:10 *343:142 0
8 *41:12 output_o[114] 4.75425e-05
9 *41:12 output_o[116] 0
10 *41:12 *2546:B 0
11 *41:12 *2547:B 0.000175836
12 *41:12 *168:10 0
13 *41:12 *169:8 0.00480814
14 *41:12 *305:57 0.000117331
15 *41:12 *306:55 8.01118e-05
16 *41:12 *312:72 0.000176511
17 *41:12 *343:142 0
18 *41:12 *343:157 0.000144053
19 *41:12 *343:161 0
20 output_no[113] *41:12 0
21 *40:20 *41:12 0
*RES
1 *2569:Y *41:10 21.4523 
2 *41:10 *41:12 37.5229 
3 *41:12 output_no[127] 23.2651 
*END

*D_NET *42 0.0178178
*CONN
*P output_no[12] O
*I *2597:Y O *D sg13g2_nand2_1
*CAP
1 output_no[12] 7.0825e-05
2 *2597:Y 0.000206208
3 *42:20 0.00302769
4 *42:18 0.00295687
5 *42:16 0.000803925
6 *42:8 0.00101013
7 output_no[12] output_o[12] 6.22734e-05
8 *42:8 output_no[29] 0
9 *42:8 output_o[30] 0
10 *42:16 *280:18 0
11 *42:16 *283:61 0
12 *42:16 *296:36 0.000436764
13 *42:16 *319:27 0
14 *42:20 *72:16 0.00468647
15 *42:20 *83:14 0
16 *42:20 *83:20 0.00455667
17 *42:20 *127:16 0
*RES
1 *2597:Y *42:8 42.0806 
2 *42:8 *42:16 48.4563 
3 *42:16 *42:18 20 
4 *42:18 *42:20 37.3066 
5 *42:20 output_no[12] 20.9682 
*END

*D_NET *43 0.0177569
*CONN
*P output_no[13] O
*I *2599:Y O *D sg13g2_nand2_1
*CAP
1 output_no[13] 0.000392861
2 *2599:Y 0
3 *43:16 0.00863748
4 *43:6 0.00824462
5 output_no[13] output_o[13] 0.000481903
*RES
1 *2599:Y *43:6 40 
2 *43:6 *43:16 46.3306 
3 *43:16 output_no[13] 48.3157 
*END

*D_NET *44 0.0427921
*CONN
*P output_no[14] O
*I *2601:Y O *D sg13g2_nand2_1
*CAP
1 output_no[14] 0.000919307
2 *2601:Y 0.000544907
3 *44:22 0.00197783
4 *44:18 0.00697172
5 *44:16 0.0062904
6 *44:12 0.000922105
7 output_no[14] output_o[14] 0.000269726
8 output_no[14] *50:12 0
9 output_no[14] *178:8 0
10 output_no[14] *306:105 0
11 *44:12 output_o[46] 0
12 *44:12 *2425:D 0.00023193
13 *44:12 *172:10 0.00107965
14 *44:12 *283:161 0
15 *44:12 *284:171 2.14736e-05
16 *44:12 *287:39 7.30101e-05
17 *44:16 *172:14 0.00112875
18 *44:16 *284:171 0
19 *44:18 *45:14 0.0021405
20 *44:18 *94:18 0.00828759
21 *44:18 *266:14 0
22 *44:18 *308:16 0.0109179
23 *44:18 *318:30 0
24 *44:22 output_o[16] 0
25 *44:22 *328:145 0.000391763
26 *44:22 *345:125 0
27 *44:22 *345:133 0
28 *3:282 *44:12 0.000230932
29 *7:215 *44:16 0.000392702
*RES
1 *2601:Y *44:12 46.6744 
2 *44:12 *44:16 25.2942 
3 *44:16 *44:18 78.6199 
4 *44:18 *44:22 31.7214 
5 *44:22 output_no[14] 47.6632 
*END

*D_NET *45 0.0367687
*CONN
*P output_no[15] O
*I *2603:Y O *D sg13g2_nand2_1
*CAP
1 output_no[15] 0.00110723
2 *2603:Y 0
3 *45:18 0.00745203
4 *45:16 0.00634481
5 *45:14 0.00199393
6 *45:10 0.00318615
7 *45:6 0.00119223
8 output_no[15] output_o[15] 0.00239699
9 output_no[15] *139:8 0
10 *45:10 output_no[50] 0
11 *45:10 *173:12 0
12 *45:10 *287:60 0
13 *45:10 *309:20 0
14 *45:10 *309:28 0
15 *45:10 *333:10 0.000798178
16 *45:10 *345:32 0
17 *45:14 *318:30 0.00365533
18 *45:18 *150:12 0
19 *45:18 *309:12 0.0063768
20 *3:336 *45:10 0.000124547
21 *4:9 *45:18 0
22 *44:18 *45:14 0.0021405
*RES
1 *2603:Y *45:6 40 
2 *45:6 *45:10 31.4742 
3 *45:10 *45:14 44.1123 
4 *45:14 *45:16 20 
5 *45:16 *45:18 68.6701 
6 *45:18 output_no[15] 33.5754 
*END

*D_NET *46 0.00341803
*CONN
*P output_no[16] O
*I *2605:Y O *D sg13g2_nand2_1
*CAP
1 output_no[16] 0.000652698
2 *2605:Y 0.000652698
3 output_no[16] output_o[16] 0.000798123
4 output_no[16] *2572:A 0
5 output_no[16] *2572:B 1.54285e-05
6 output_no[16] *2576:A 0.000537963
7 output_no[16] *2578:A 0
8 output_no[16] *290:20 7.41981e-06
9 output_no[16] *345:123 0.000259099
10 output_no[16] *345:125 0.000212302
11 output_no[16] *345:133 0.000282302
*RES
1 *2605:Y output_no[16] 48.8735 
*END

*D_NET *47 0.00101232
*CONN
*P output_no[17] O
*I *2607:Y O *D sg13g2_nand2_1
*CAP
1 output_no[17] 0.00031901
2 *2607:Y 0.00031901
3 output_no[17] output_o[17] 0.000374303
4 output_no[17] *2606:A 0
5 output_no[17] *296:16 0
6 output_no[17] *306:105 0
*RES
1 *2607:Y output_no[17] 43.1827 
*END

*D_NET *48 0.000923999
*CONN
*P output_no[18] O
*I *2609:Y O *D sg13g2_nand2_1
*CAP
1 output_no[18] 0.000236331
2 *2609:Y 0.000236331
3 output_no[18] output_o[18] 0.000371891
4 output_no[18] *2607:A 7.94462e-05
*RES
1 *2609:Y output_no[18] 42.3175 
*END

*D_NET *49 0.000739095
*CONN
*P output_no[19] O
*I *2611:Y O *D sg13g2_nand2_1
*CAP
1 output_no[19] 0.000183602
2 *2611:Y 0.000183602
3 output_no[19] output_o[19] 0.000371891
*RES
1 *2611:Y output_no[19] 41.7819 
*END

*D_NET *50 0.019776
*CONN
*P output_no[1] O
*I *2575:Y O *D sg13g2_nand2_1
*CAP
1 output_no[1] 6.7137e-05
2 *2575:Y 0.000334178
3 *50:12 0.00581994
4 *50:10 0.0057528
5 *50:8 0.000334178
6 output_no[1] output_o[1] 6.40802e-05
7 *50:8 *2299:B 0
8 *50:8 *72:12 0.000389474
9 *50:8 *255:10 0
10 *50:8 *275:104 0
11 *50:8 *275:115 0
12 *50:8 *344:183 0
13 *50:12 output_o[2] 0.00410176
14 *50:12 *139:12 0
15 *50:12 *178:8 0
16 *50:12 *200:6 0
17 *50:12 *280:18 0.000241412
18 *50:12 *283:69 0.000534047
19 *50:12 *299:30 0.000565317
20 *50:12 *306:105 0.00157163
21 *50:12 *345:119 0
22 output_no[14] *50:12 0
*RES
1 *2575:Y *50:8 43.0694 
2 *50:8 *50:10 20 
3 *50:10 *50:12 60.2344 
4 *50:12 output_no[1] 20.7931 
*END

*D_NET *51 0.000729836
*CONN
*P output_no[20] O
*I *2613:Y O *D sg13g2_nand2_1
*CAP
1 output_no[20] 0.000179015
2 *2613:Y 0.000179015
3 output_no[20] output_o[20] 0.000371805
4 output_no[20] *275:182 0
*RES
1 *2613:Y output_no[20] 41.7819 
*END

*D_NET *52 0.0013342
*CONN
*P output_no[21] O
*I *2615:Y O *D sg13g2_nand3_1
*CAP
1 output_no[21] 0.000220126
2 *2615:Y 0.000220126
3 output_no[21] output_o[21] 0.000533189
4 output_no[21] *61:22 0.000280711
5 output_no[21] *181:8 0
6 output_no[21] *298:46 8.00444e-05
*RES
1 *2615:Y output_no[21] 43.0591 
*END

*D_NET *53 0.00101605
*CONN
*P output_no[22] O
*I *2617:Y O *D sg13g2_nand3_1
*CAP
1 output_no[22] 0.000257087
2 *2617:Y 0.000257087
3 output_no[22] output_o[22] 6.22734e-05
4 output_no[22] *181:8 0
5 output_no[22] *283:69 0.000439608
*RES
1 *2617:Y output_no[22] 42.8428 
*END

*D_NET *54 0.00322699
*CONN
*P output_no[23] O
*I *2294:Y O *D sg13g2_nand3_1
*CAP
1 output_no[23] 0.000567909
2 *2294:Y 0.000567909
3 output_no[23] output_o[23] 0.00157949
4 output_no[23] *2294:C 0
5 output_no[23] *2300:A 0
6 output_no[23] *269:113 0.000179386
7 output_no[23] *275:104 0
8 output_no[23] *310:8 0.000332298
9 output_no[23] *328:139 0
*RES
1 *2294:Y output_no[23] 47.7868 
*END

*D_NET *55 0.00113879
*CONN
*P output_no[24] O
*I *2300:Y O *D sg13g2_nand2_1
*CAP
1 output_no[24] 0.000155554
2 *2300:Y 0.000155554
3 output_no[24] output_o[24] 0.000374036
4 output_no[24] *61:14 7.92524e-05
5 output_no[24] *72:12 0.00037439
6 output_no[24] *299:30 0
*RES
1 *2300:Y output_no[24] 42.3175 
*END

*D_NET *56 0.00178033
*CONN
*P output_no[25] O
*I *2304:Y O *D sg13g2_nand3_1
*CAP
1 output_no[25] 0.000420101
2 *2304:Y 0.000420101
3 output_no[25] output_o[25] 0.000586164
4 output_no[25] *2588:A 0.00024131
5 output_no[25] *2588:B 0.000112656
6 output_no[25] *127:12 0
7 output_no[25] *345:104 0
8 output_no[25] *345:119 0
*RES
1 *2304:Y output_no[25] 44.7071 
*END

*D_NET *57 0.00233946
*CONN
*P output_no[26] O
*I *2308:Y O *D sg13g2_nand3_1
*CAP
1 output_no[26] 0.000537641
2 *2308:Y 0.000537641
3 output_no[26] output_o[26] 0.00126418
4 output_no[26] *303:8 0
5 output_no[26] *320:22 0
6 output_no[26] *344:173 0
*RES
1 *2308:Y output_no[26] 46.3036 
*END

*D_NET *58 0.0027423
*CONN
*P output_no[27] O
*I *2310:Y O *D sg13g2_nand3_1
*CAP
1 output_no[27] 0.000515528
2 *2310:Y 0.000515528
3 output_no[27] output_o[27] 0.00121826
4 output_no[27] *83:8 0
5 output_no[27] *269:95 7.92524e-05
6 output_no[27] *289:23 7.92524e-05
7 output_no[27] *290:16 0.00033448
8 output_no[27] *296:42 0
*RES
1 *2310:Y output_no[27] 46.2727 
*END

*D_NET *59 0.000688108
*CONN
*P output_no[28] O
*I *2314:Y O *D sg13g2_nand2_1
*CAP
1 output_no[28] 0.000114929
2 *2314:Y 0.000114929
3 output_no[28] output_o[28] 0.000383453
4 output_no[28] *2314:A 7.47964e-05
*RES
1 *2314:Y output_no[28] 41.7819 
*END

*D_NET *60 0.00147164
*CONN
*P output_no[29] O
*I *2316:Y O *D sg13g2_nand3_1
*CAP
1 output_no[29] 0.000288185
2 *2316:Y 0.000288185
3 output_no[29] output_o[29] 0.000540556
4 output_no[29] *275:75 0
5 output_no[29] *281:33 0.000177415
6 output_no[29] *286:12 0.0001773
7 *42:8 output_no[29] 0
*RES
1 *2316:Y output_no[29] 43.708 
*END

*D_NET *61 0.0229156
*CONN
*P output_no[2] O
*I *2577:Y O *D sg13g2_nand2_1
*CAP
1 output_no[2] 4.54933e-05
2 *2577:Y 0.000219588
3 *61:26 0.00391188
4 *61:24 0.00386639
5 *61:22 0.000794759
6 *61:14 0.00101435
7 output_no[2] output_o[2] 0.000117112
8 *61:14 output_o[24] 0
9 *61:14 *2299:B 2.18716e-05
10 *61:14 *72:12 0
11 *61:14 *280:18 7.34081e-05
12 *61:14 *299:30 0
13 *61:14 *344:177 0
14 *61:22 *2300:A 4.77425e-05
15 *61:22 *2615:A 0
16 *61:22 *181:8 0
17 *61:22 *267:30 0
18 *61:22 *275:123 0
19 *61:22 *298:46 0
20 *61:22 *299:30 0.000663053
21 *61:22 *310:47 0
22 *61:26 *72:16 0
23 *61:26 *83:20 0.00666146
24 *61:26 *127:16 0.00511858
25 output_no[21] *61:22 0.000280711
26 output_no[24] *61:14 7.92524e-05
*RES
1 *2577:Y *61:14 42.2042 
2 *61:14 *61:22 48.1473 
3 *61:22 *61:24 20 
4 *61:24 *61:26 49.6357 
5 *61:26 output_no[2] 20.5459 
*END

*D_NET *62 0.00145927
*CONN
*P output_no[30] O
*I *2318:Y O *D sg13g2_nand3_1
*CAP
1 output_no[30] 0.000189035
2 *2318:Y 0.000189035
3 output_no[30] output_o[30] 0.000535396
4 output_no[30] *275:56 7.92265e-05
5 output_no[30] *283:34 0.000387348
6 output_no[30] *286:12 7.92265e-05
*RES
1 *2318:Y output_no[30] 43.0591 
*END

*D_NET *63 0.00123807
*CONN
*P output_no[31] O
*I *2322:Y O *D sg13g2_nand2_1
*CAP
1 output_no[31] 0.000172645
2 *2322:Y 0.000172645
3 output_no[31] output_o[31] 0.000379286
4 output_no[31] *2580:A 0.000178117
5 output_no[31] *328:20 0.000335378
*RES
1 *2322:Y output_no[31] 42.7707 
*END

*D_NET *64 0.00142525
*CONN
*P output_no[32] O
*I *2331:Y O *D sg13g2_nand2_1
*CAP
1 output_no[32] 0.000314516
2 *2331:Y 0.000314516
3 output_no[32] output_o[32] 0.000796222
4 output_no[32] *344:141 0
*RES
1 *2331:Y output_no[32] 43.7595 
*END

*D_NET *65 0.000947712
*CONN
*P output_no[33] O
*I *2334:Y O *D sg13g2_nand2_1
*CAP
1 output_no[33] 0.000257697
2 *2334:Y 0.000257697
3 output_no[33] output_o[33] 0.000432318
4 output_no[33] *2322:B 0
5 output_no[33] *299:56 0
*RES
1 *2334:Y output_no[33] 42.781 
*END

*D_NET *66 0.00147293
*CONN
*P output_no[34] O
*I *2337:Y O *D sg13g2_nand2_1
*CAP
1 output_no[34] 0.000301838
2 *2337:Y 0.000301838
3 output_no[34] output_o[34] 0.000796242
4 output_no[34] *294:144 7.30101e-05
*RES
1 *2337:Y output_no[34] 43.7595 
*END

*D_NET *67 0.00107172
*CONN
*P output_no[35] O
*I *2340:Y O *D sg13g2_nand2_1
*CAP
1 output_no[35] 0.000204807
2 *2340:Y 0.000204807
3 output_no[35] output_o[35] 0.000588945
4 output_no[35] *2340:A 7.31628e-05
*RES
1 *2340:Y output_no[35] 42.7707 
*END

*D_NET *68 0.00116931
*CONN
*P output_no[36] O
*I *2343:Y O *D sg13g2_nand2_1
*CAP
1 output_no[36] 0.000239294
2 *2343:Y 0.000239294
3 output_no[36] output_o[36] 0.000538145
4 output_no[36] *2343:A 0.000152578
5 output_no[36] *344:133 0
*RES
1 *2343:Y output_no[36] 43.0591 
*END

*D_NET *69 0.00127296
*CONN
*P output_no[37] O
*I *2345:Y O *D sg13g2_nand3_1
*CAP
1 output_no[37] 0.000210444
2 *2345:Y 0.000210444
3 output_no[37] output_o[37] 0.000553251
4 output_no[37] *281:84 0.000298824
5 output_no[37] *319:33 0
*RES
1 *2345:Y output_no[37] 43.09 
*END

*D_NET *70 0.0010448
*CONN
*P output_no[38] O
*I *2347:Y O *D sg13g2_nand3_1
*CAP
1 output_no[38] 0.000226523
2 *2347:Y 0.000226523
3 output_no[38] output_o[38] 0.000591752
4 output_no[38] *345:82 0
*RES
1 *2347:Y output_no[38] 43.09 
*END

*D_NET *71 0.00250076
*CONN
*P output_no[39] O
*I *2349:Y O *D sg13g2_nand3_1
*CAP
1 output_no[39] 0.000385469
2 *2349:Y 0.000385469
3 output_no[39] output_o[39] 0.00105769
4 output_no[39] *270:139 7.92265e-05
5 output_no[39] *275:36 7.92265e-05
6 output_no[39] *280:40 0
7 output_no[39] *314:25 0.000181592
8 output_no[39] *316:10 0.00022762
9 output_no[39] *316:23 0.000104471
*RES
1 *2349:Y output_no[39] 45.5311 
*END

*D_NET *72 0.0155234
*CONN
*P output_no[3] O
*I *2579:Y O *D sg13g2_nand2_1
*CAP
1 output_no[3] 9.78127e-05
2 *2579:Y 0.000315224
3 *72:16 0.0046894
4 *72:14 0.00459159
5 *72:12 0.000315224
6 output_no[3] output_o[3] 6.37726e-05
7 output_no[3] output_o[4] 0
8 *72:12 output_o[24] 0
9 *72:12 output_o[25] 0
10 *72:12 *281:47 0
11 *72:16 *83:20 0
12 output_no[24] *72:12 0.00037439
13 *42:20 *72:16 0.00468647
14 *50:8 *72:12 0.000389474
15 *61:14 *72:12 0
16 *61:26 *72:16 0
*RES
1 *2579:Y *72:12 43.4917 
2 *72:12 *72:14 20 
3 *72:14 *72:16 54.6106 
4 *72:16 output_no[3] 21.2154 
*END

*D_NET *73 0.00151297
*CONN
*P output_no[40] O
*I *2351:Y O *D sg13g2_nand2_1
*CAP
1 output_no[40] 0.000375817
2 *2351:Y 0.000375817
3 output_no[40] output_o[40] 0.000536963
4 output_no[40] *281:86 0
5 output_no[40] *294:60 0.000208968
6 output_no[40] *294:62 1.54008e-05
7 output_no[40] *328:36 0
8 output_no[40] *344:117 0
9 output_no[40] *345:76 0
10 *33:10 output_no[40] 0
*RES
1 *2351:Y output_no[40] 44.1715 
*END

*D_NET *74 0.00159368
*CONN
*P output_no[41] O
*I *2353:Y O *D sg13g2_nand3_1
*CAP
1 output_no[41] 0.000326119
2 *2353:Y 2.04252e-05
3 *74:8 0.000346544
4 output_no[41] output_o[41] 0.000640766
5 output_no[41] *281:124 0
6 output_no[41] *287:31 0.000113526
7 *74:8 *277:69 7.32897e-05
8 *74:8 *325:8 7.30101e-05
*RES
1 *2353:Y *74:8 40.3502 
2 *74:8 output_no[41] 43.7698 
*END

*D_NET *75 0.00121532
*CONN
*P output_no[42] O
*I *2355:Y O *D sg13g2_nand3_1
*CAP
1 output_no[42] 0.000301275
2 *2355:Y 0.000301275
3 output_no[42] output_o[42] 0.000533545
4 output_no[42] *277:61 7.92265e-05
5 output_no[42] *294:54 0
6 output_no[42] *328:40 0
*RES
1 *2355:Y output_no[42] 43.0591 
*END

*D_NET *76 0.00249238
*CONN
*P output_no[43] O
*I *2357:Y O *D sg13g2_nand3_1
*CAP
1 output_no[43] 0.000414457
2 *2357:Y 0.000414457
3 output_no[43] output_o[43] 0.00110798
4 output_no[43] *204:12 1.57249e-05
5 output_no[43] *294:247 0
6 output_no[43] *326:10 0.000539767
*RES
1 *2357:Y output_no[43] 45.8092 
*END

*D_NET *77 0.00080602
*CONN
*P output_no[44] O
*I *2359:Y O *D sg13g2_nand2_1
*CAP
1 output_no[44] 0.000222469
2 *2359:Y 0.000222469
3 output_no[44] output_o[44] 0.0002249
4 output_no[44] output_o[45] 0
5 output_no[44] *286:55 0.000120753
6 output_no[44] *344:68 1.54282e-05
*RES
1 *2359:Y output_no[44] 42.5235 
*END

*D_NET *78 0.00124701
*CONN
*P output_no[45] O
*I *2361:Y O *D sg13g2_nand3_1
*CAP
1 output_no[45] 0.000288898
2 *2361:Y 0.000288898
3 output_no[45] output_o[45] 0.000589196
4 output_no[45] *2590:A 8.0017e-05
5 output_no[45] *322:25 0
6 output_no[45] *345:51 0
*RES
1 *2361:Y output_no[45] 43.3063 
*END

*D_NET *79 0.00105613
*CONN
*P output_no[46] O
*I *2363:Y O *D sg13g2_nand3_1
*CAP
1 output_no[46] 0.000224894
2 *2363:Y 0.000224894
3 output_no[46] output_o[46] 0.00043026
4 output_no[46] *281:158 0
5 output_no[46] *283:161 0.000176083
*RES
1 *2363:Y output_no[46] 43.0488 
*END

*D_NET *80 0.00185378
*CONN
*P output_no[47] O
*I *2365:Y O *D sg13g2_nand2_1
*CAP
1 output_no[47] 0.000207095
2 *2365:Y 0.000207095
3 output_no[47] output_o[47] 0.000793667
4 output_no[47] *294:26 0.000645919
5 output_no[47] *332:23 0
*RES
1 *2365:Y output_no[47] 43.7595 
*END

*D_NET *81 0.00134716
*CONN
*P output_no[48] O
*I *2372:Y O *D sg13g2_nand2_1
*CAP
1 output_no[48] 0.000484134
2 *2372:Y 0.000484134
3 output_no[48] output_o[48] 0.000378891
4 output_no[48] *344:37 0
5 output_no[48] *345:32 0
*RES
1 *2372:Y output_no[48] 44.4805 
*END

*D_NET *82 0.00108996
*CONN
*P output_no[49] O
*I *2376:Y O *D sg13g2_nand2_1
*CAP
1 output_no[49] 0.000252083
2 *2376:Y 0.000252083
3 output_no[49] output_o[49] 0.000585799
4 output_no[49] *303:20 0
*RES
1 *2376:Y output_no[49] 42.7707 
*END

*D_NET *83 0.0244904
*CONN
*P output_no[4] O
*I *2581:Y O *D sg13g2_nand2_1
*CAP
1 output_no[4] 2.90546e-05
2 *2581:Y 0.000341616
3 *83:20 0.00459866
4 *83:18 0.00466832
5 *83:14 0.000862245
6 *83:8 0.00110515
7 output_no[4] output_o[4] 6.37735e-05
8 *83:8 *296:42 0
9 *83:8 *319:10 0
10 *83:8 *344:163 0
11 *83:14 *127:16 0
12 *83:14 *255:14 0.000243416
13 *83:20 *127:16 0
14 output_no[27] *83:8 0
15 *22:12 *83:14 0.00136003
16 *42:20 *83:14 0
17 *42:20 *83:20 0.00455667
18 *61:26 *83:20 0.00666146
19 *72:16 *83:20 0
*RES
1 *2581:Y *83:8 42.575 
2 *83:8 *83:14 48.9713 
3 *83:14 *83:18 21.0918 
4 *83:18 *83:20 51.3661 
5 *83:20 output_no[4] 20.2987 
*END

*D_NET *84 0.000971466
*CONN
*P output_no[50] O
*I *2380:Y O *D sg13g2_nand2_1
*CAP
1 output_no[50] 0.000297967
2 *2380:Y 0.000297967
3 output_no[50] output_o[50] 0.000375531
4 output_no[50] *173:12 0
5 output_no[50] *344:22 0
6 output_no[50] *345:32 0
7 *45:10 output_no[50] 0
*RES
1 *2380:Y output_no[50] 42.7707 
*END

*D_NET *85 0.00148162
*CONN
*P output_no[51] O
*I *2384:Y O *D sg13g2_nand2_1
*CAP
1 output_no[51] 0.000259962
2 *2384:Y 0.000259962
3 output_no[51] output_o[51] 0.000582721
4 output_no[51] *301:72 0
5 output_no[51] *329:47 0
6 output_no[51] *334:29 0.000378975
*RES
1 *2384:Y output_no[51] 43.3063 
*END

*D_NET *86 0.00109796
*CONN
*P output_no[52] O
*I *2388:Y O *D sg13g2_nand2_1
*CAP
1 output_no[52] 0.000257512
2 *2388:Y 0.000257512
3 output_no[52] output_o[52] 0.000582938
4 output_no[52] *322:31 0
*RES
1 *2388:Y output_no[52] 42.7707 
*END

*D_NET *87 0.00110735
*CONN
*P output_no[53] O
*I *2392:Y O *D sg13g2_nand2_1
*CAP
1 output_no[53] 0.000252023
2 *2392:Y 0.000252023
3 output_no[53] output_o[53] 0.000374487
4 output_no[53] *215:8 0.000228816
*RES
1 *2392:Y output_no[53] 42.7707 
*END

*D_NET *88 0.00130303
*CONN
*P output_no[54] O
*I *2396:Y O *D sg13g2_nand2_1
*CAP
1 output_no[54] 0.000320434
2 *2396:Y 0.000320434
3 output_no[54] output_o[54] 0.000582938
4 output_no[54] *301:55 7.9225e-05
5 output_no[54] *329:47 0
*RES
1 *2396:Y output_no[54] 43.3063 
*END

*D_NET *89 0.00110885
*CONN
*P output_no[55] O
*I *2400:Y O *D sg13g2_nand2_1
*CAP
1 output_no[55] 0.000262881
2 *2400:Y 0.000262881
3 output_no[55] output_o[55] 0.000583091
*RES
1 *2400:Y output_no[55] 42.7707 
*END

*D_NET *90 0.00118306
*CONN
*P output_no[56] O
*I *2404:Y O *D sg13g2_nand2_1
*CAP
1 output_no[56] 0.00039841
2 *2404:Y 0.00039841
3 output_no[56] output_o[56] 0.000338472
4 output_no[56] *301:51 4.77699e-05
5 output_no[56] *329:47 0
*RES
1 *2404:Y output_no[56] 43.5123 
*END

*D_NET *91 0.00147077
*CONN
*P output_no[57] O
*I *2408:Y O *D sg13g2_nand2_1
*CAP
1 output_no[57] 0.000488356
2 *2408:Y 0.000488356
3 output_no[57] output_o[57] 0.000478604
4 output_no[57] *272:22 1.54556e-05
5 output_no[57] *293:51 0
6 output_no[57] *344:12 0
*RES
1 *2408:Y output_no[57] 44.2951 
*END

*D_NET *92 0.00151857
*CONN
*P output_no[58] O
*I *2412:Y O *D sg13g2_nand2_1
*CAP
1 output_no[58] 0.000481522
2 *2412:Y 0.000481522
3 output_no[58] output_o[58] 0.000374488
4 output_no[58] *2415:B 7.98582e-05
5 output_no[58] *301:34 7.97081e-05
6 output_no[58] *325:35 0
7 output_no[58] *329:47 0
8 output_no[58] *345:8 2.14736e-05
*RES
1 *2412:Y output_no[58] 44.5835 
*END

*D_NET *93 0.000814046
*CONN
*P output_no[59] O
*I *2416:Y O *D sg13g2_nand2_1
*CAP
1 output_no[59] 0.000194011
2 *2416:Y 0.000194011
3 output_no[59] output_o[59] 0.000426025
*RES
1 *2416:Y output_no[59] 42.0291 
*END

*D_NET *94 0.0293197
*CONN
*P output_no[5] O
*I *2583:Y O *D sg13g2_nand2_1
*CAP
1 output_no[5] 0.00100747
2 *2583:Y 0
3 *94:24 0.00184154
4 *94:18 0.00699546
5 *94:16 0.0069998
6 *94:12 0.000884908
7 *94:6 4.65112e-05
8 output_no[5] output_o[4] 0.000597411
9 output_no[5] output_o[5] 0.000751588
10 output_no[5] *200:6 0
11 *94:12 *275:40 7.93292e-05
12 *94:12 *281:63 7.93292e-05
13 *94:16 *105:14 0.0017488
14 *94:18 *266:14 0
15 *94:24 output_o[9] 0
16 *3:13 output_no[5] 0
17 *44:18 *94:18 0.00828759
*RES
1 *2583:Y *94:6 40 
2 *94:6 *94:12 40.5356 
3 *94:12 *94:16 30.4854 
4 *94:16 *94:18 73.645 
5 *94:18 *94:24 49.7438 
6 *94:24 output_no[5] 31.8347 
*END

*D_NET *95 0.00128672
*CONN
*P output_no[60] O
*I *2420:Y O *D sg13g2_nand2_1
*CAP
1 output_no[60] 0.000338734
2 *2420:Y 0.000338734
3 output_no[60] output_o[60] 0.000529098
4 output_no[60] *272:41 8.01576e-05
5 output_no[60] *302:149 0
6 output_no[60] *325:50 0
*RES
1 *2420:Y output_no[60] 43.3063 
*END

*D_NET *96 0.00110139
*CONN
*P output_no[61] O
*I *2424:Y O *D sg13g2_nand2_1
*CAP
1 output_no[61] 0.000275806
2 *2424:Y 0.000275806
3 output_no[61] output_o[61] 0.000373146
4 output_no[61] *272:41 0
5 output_no[61] *330:24 0.000176637
6 output_no[61] *332:42 0
*RES
1 *2424:Y output_no[61] 42.7707 
*END

*D_NET *97 0.00134959
*CONN
*P output_no[62] O
*I *2428:Y O *D sg13g2_nand2_1
*CAP
1 output_no[62] 0.000192755
2 *2428:Y 0.000192755
3 output_no[62] output_o[62] 0.000580494
4 output_no[62] *331:51 0.000383585
5 output_no[62] *333:31 0
*RES
1 *2428:Y output_no[62] 42.7707 
*END

*D_NET *98 0.00117047
*CONN
*P output_no[63] O
*I *2432:Y O *D sg13g2_nand2_1
*CAP
1 output_no[63] 0.000398737
2 *2432:Y 0.000398737
3 output_no[63] output_o[63] 0.000372992
4 output_no[63] *313:60 0
5 output_no[63] *325:50 0
6 output_no[63] *333:31 0
*RES
1 *2432:Y output_no[63] 43.5226 
*END

*D_NET *99 0.00114871
*CONN
*P output_no[64] O
*I *2437:Y O *D sg13g2_nand2_1
*CAP
1 output_no[64] 0.000245581
2 *2437:Y 0.000245581
3 output_no[64] output_o[64] 0.000582992
4 output_no[64] *303:37 7.4559e-05
*RES
1 *2437:Y output_no[64] 42.7707 
*END

*D_NET *100 0.00162802
*CONN
*P output_no[65] O
*I *2439:Y O *D sg13g2_nand2_1
*CAP
1 output_no[65] 0.000438968
2 *2439:Y 0.000438968
3 output_no[65] output_o[65] 0.000424529
4 output_no[65] *2437:B 1.54282e-05
5 output_no[65] *325:50 0.000111713
6 output_no[65] *336:13 0.000176626
7 output_no[65] *337:28 0
8 *2434:A output_no[65] 2.1786e-05
9 *10:73 output_no[65] 0
*RES
1 *2439:Y output_no[65] 44.2745 
*END

*D_NET *101 0.00132895
*CONN
*P output_no[66] O
*I *2441:Y O *D sg13g2_nand2_1
*CAP
1 output_no[66] 0.000334154
2 *2441:Y 0.000334154
3 output_no[66] output_o[66] 0.000580602
4 output_no[66] *325:50 0
5 output_no[66] *336:20 8.00444e-05
6 output_no[66] *337:60 0
*RES
1 *2441:Y output_no[66] 43.3063 
*END

*D_NET *102 0.00136748
*CONN
*P output_no[67] O
*I *2443:Y O *D sg13g2_nand2_1
*CAP
1 output_no[67] 0.000394015
2 *2443:Y 0.000394015
3 output_no[67] output_o[67] 0.000579451
4 output_no[67] *2442:A 0
*RES
1 *2443:Y output_no[67] 43.7595 
*END

*D_NET *103 0.00153669
*CONN
*P output_no[68] O
*I *2445:Y O *D sg13g2_nand2_1
*CAP
1 output_no[68] 0.000352057
2 *2445:Y 0.000352057
3 output_no[68] output_o[68] 0.000579451
4 output_no[68] *311:24 7.44263e-05
5 output_no[68] *312:26 0.000178703
6 output_no[68] *314:54 0
*RES
1 *2445:Y output_no[68] 43.7595 
*END

*D_NET *104 0.00165215
*CONN
*P output_no[69] O
*I *2447:Y O *D sg13g2_nand2_1
*CAP
1 output_no[69] 0.00046263
2 *2447:Y 0.00046263
3 output_no[69] output_o[69] 0.000527602
4 output_no[69] *2449:A 0.000119893
5 output_no[69] *336:49 7.93965e-05
6 output_no[69] *337:82 0
*RES
1 *2447:Y output_no[69] 44.2951 
*END

*D_NET *105 0.0356868
*CONN
*P output_no[6] O
*I *2585:Y O *D sg13g2_nand2_1
*CAP
1 output_no[6] 0.000704401
2 *2585:Y 0.000142827
3 *105:18 0.00697333
4 *105:16 0.00626893
5 *105:14 0.000666503
6 *105:8 0.000809331
7 output_no[6] output_o[6] 0.00230214
8 output_no[6] *211:26 0
9 *105:8 *328:28 0
10 *105:8 *344:125 0
11 *105:18 *211:20 0.00980985
12 *105:18 *276:12 4.70583e-05
13 *105:18 *304:14 0
14 *105:18 *306:12 0.00621359
15 *94:16 *105:14 0.0017488
*RES
1 *2585:Y *105:8 41.1845 
2 *105:8 *105:14 48.755 
3 *105:14 *105:16 20 
4 *105:16 *105:18 79.4851 
5 *105:18 output_no[6] 30.6811 
*END

*D_NET *106 0.00160871
*CONN
*P output_no[70] O
*I *2449:Y O *D sg13g2_nand2_1
*CAP
1 output_no[70] 0.000348657
2 *2449:Y 0.000348657
3 output_no[70] output_o[70] 0.000579291
4 output_no[70] *2448:A 7.44237e-05
5 output_no[70] *316:50 0.000257683
*RES
1 *2449:Y output_no[70] 43.7595 
*END

*D_NET *107 0.00148923
*CONN
*P output_no[71] O
*I *2451:Y O *D sg13g2_nand2_1
*CAP
1 output_no[71] 0.000447601
2 *2451:Y 0.000447601
3 output_no[71] output_o[71] 0.000546118
4 output_no[71] *319:64 0
5 output_no[71] *320:84 0
6 output_no[71] *336:63 4.79124e-05
7 output_no[71] *337:96 0
*RES
1 *2451:Y output_no[71] 44.5011 
*END

*D_NET *108 0.00187306
*CONN
*P output_no[72] O
*I *2453:Y O *D sg13g2_nand2_1
*CAP
1 output_no[72] 0.000560082
2 *2453:Y 0.000560082
3 output_no[72] output_o[72] 0.000527602
4 output_no[72] *2452:A 0
5 output_no[72] *336:63 4.77702e-05
6 output_no[72] *336:70 0.000177528
7 output_no[72] *337:104 0
*RES
1 *2453:Y output_no[72] 45.1603 
*END

*D_NET *109 0.00151674
*CONN
*P output_no[73] O
*I *2455:Y O *D sg13g2_nand2_1
*CAP
1 output_no[73] 0.000342765
2 *2455:Y 0.000342765
3 output_no[73] output_o[73] 0.000579291
4 output_no[73] *321:39 7.44263e-05
5 output_no[73] *322:47 0.000177497
*RES
1 *2455:Y output_no[73] 43.7595 
*END

*D_NET *110 0.00137864
*CONN
*P output_no[74] O
*I *2457:Y O *D sg13g2_nand2_1
*CAP
1 output_no[74] 0.000399751
2 *2457:Y 0.000399751
3 output_no[74] output_o[74] 0.000579138
*RES
1 *2457:Y output_no[74] 43.7595 
*END

*D_NET *111 0.00131366
*CONN
*P output_no[75] O
*I *2459:Y O *D sg13g2_nand2_1
*CAP
1 output_no[75] 0.000384853
2 *2459:Y 0.000384853
3 output_no[75] output_o[75] 0.000527602
4 output_no[75] *2459:A 1.63516e-05
5 output_no[75] *325:50 0
6 output_no[75] *337:134 0
*RES
1 *2459:Y output_no[75] 43.5226 
*END

*D_NET *112 0.00145276
*CONN
*P output_no[76] O
*I *2461:Y O *D sg13g2_nand2_1
*CAP
1 output_no[76] 0.000373754
2 *2461:Y 0.000373754
3 output_no[76] output_o[76] 0.000579291
4 output_no[76] *328:67 0.00012596
*RES
1 *2461:Y output_no[76] 43.7595 
*END

*D_NET *113 0.00177377
*CONN
*P output_no[77] O
*I *2463:Y O *D sg13g2_nand2_1
*CAP
1 output_no[77] 0.000452549
2 *2463:Y 0.000452549
3 output_no[77] output_o[77] 0.000543123
4 output_no[77] *329:71 0.000277667
5 output_no[77] *332:50 0
6 output_no[77] *336:111 4.78853e-05
*RES
1 *2463:Y output_no[77] 44.5011 
*END

*D_NET *114 0.00181593
*CONN
*P output_no[78] O
*I *2465:Y O *D sg13g2_nand2_1
*CAP
1 output_no[78] 0.000447564
2 *2465:Y 0.000447564
3 output_no[78] output_o[78] 0.000527603
4 output_no[78] *2465:A 0
5 output_no[78] *2467:B 0.000112641
6 output_no[78] *333:44 0
7 output_no[78] *334:58 0.000280554
*RES
1 *2465:Y output_no[78] 44.5114 
*END

*D_NET *115 0.00172908
*CONN
*P output_no[79] O
*I *2467:Y O *D sg13g2_nand2_1
*CAP
1 output_no[79] 0.000573818
2 *2467:Y 0.000573818
3 output_no[79] output_o[79] 0.000581444
4 output_no[79] *313:77 0
5 output_no[79] *334:66 0
*RES
1 *2467:Y output_no[79] 45.1603 
*END

*D_NET *116 0.0292345
*CONN
*P output_no[7] O
*I *2587:Y O *D sg13g2_nand2_1
*CAP
1 output_no[7] 0.00127184
2 *2587:Y 0.000121684
3 *116:14 0.00702255
4 *116:12 0.00713002
5 *116:8 0.00150099
6 output_no[7] output_o[7] 0.000911145
7 output_no[7] *211:26 0
8 *116:8 *287:29 0.000144142
9 *116:8 *344:141 0.000208825
10 *116:12 *2337:B 0.000436223
11 *116:12 *270:110 0
12 *116:12 *287:8 0
13 *116:12 *294:144 0
14 *116:12 *297:16 7.40536e-05
15 *116:14 *138:14 0.00951536
16 *116:14 *233:12 0
17 *4:35 *116:12 0.000439478
18 *5:37 *116:12 0.00022894
19 *5:52 *116:12 0.000229273
20 *7:161 *116:12 0
*RES
1 *2587:Y *116:8 41.4008 
2 *116:8 *116:12 33.2046 
3 *116:12 *116:14 68.8864 
4 *116:14 output_no[7] 35.8723 
*END

*D_NET *117 0.000699135
*CONN
*P output_no[80] O
*I *2471:Y O *D sg13g2_nand2_1
*CAP
1 output_no[80] 0.000162323
2 *2471:Y 0.000162323
3 output_no[80] output_o[80] 0.000374488
*RES
1 *2471:Y output_no[80] 41.7819 
*END

*D_NET *118 0.00167322
*CONN
*P output_no[81] O
*I *2473:Y O *D sg13g2_nand2_1
*CAP
1 output_no[81] 0.000443476
2 *2473:Y 0.000443476
3 output_no[81] output_o[81] 0.000530141
4 output_no[81] *2474:A 0.000176083
5 output_no[81] *334:66 0
6 output_no[81] *338:30 8.00426e-05
*RES
1 *2473:Y output_no[81] 44.2951 
*END

*D_NET *119 0.00143451
*CONN
*P output_no[82] O
*I *2475:Y O *D sg13g2_nand2_1
*CAP
1 output_no[82] 0.000389391
2 *2475:Y 0.000389391
3 output_no[82] output_o[82] 0.000581678
4 output_no[82] *2475:A 7.40536e-05
*RES
1 *2475:Y output_no[82] 43.7595 
*END

*D_NET *120 0.00154305
*CONN
*P output_no[83] O
*I *2477:Y O *D sg13g2_nand2_1
*CAP
1 output_no[83] 0.000474749
2 *2477:Y 0.000474749
3 output_no[83] output_o[83] 0.000545663
4 output_no[83] *338:44 4.78853e-05
*RES
1 *2477:Y output_no[83] 44.5011 
*END

*D_NET *121 0.00153527
*CONN
*P output_no[84] O
*I *2479:Y O *D sg13g2_nand2_1
*CAP
1 output_no[84] 0.000478628
2 *2479:Y 0.000478628
3 output_no[84] output_o[84] 0.000530141
4 output_no[84] *334:66 0
5 output_no[84] *338:51 4.78769e-05
*RES
1 *2479:Y output_no[84] 44.5011 
*END

*D_NET *122 0.00141622
*CONN
*P output_no[85] O
*I *2481:Y O *D sg13g2_nand2_1
*CAP
1 output_no[85] 0.000380169
2 *2481:Y 0.000380169
3 output_no[85] output_o[85] 0.000581831
4 output_no[85] *313:137 7.40536e-05
*RES
1 *2481:Y output_no[85] 43.7595 
*END

*D_NET *123 0.00154907
*CONN
*P output_no[86] O
*I *2483:Y O *D sg13g2_nand2_1
*CAP
1 output_no[86] 0.000477763
2 *2483:Y 0.000477763
3 output_no[86] output_o[86] 0.000545663
4 output_no[86] *338:65 4.78853e-05
*RES
1 *2483:Y output_no[86] 44.5011 
*END

*D_NET *124 0.00112215
*CONN
*P output_no[87] O
*I *2485:Y O *D sg13g2_nand2_1
*CAP
1 output_no[87] 0.000428457
2 *2485:Y 0.000428457
3 output_no[87] output_o[87] 6.4081e-05
4 output_no[87] output_o[88] 0
5 output_no[87] *317:74 7.47964e-05
6 output_no[87] *333:55 0.000126358
*RES
1 *2485:Y output_no[87] 44.5423 
*END

*D_NET *125 0.00142938
*CONN
*P output_no[88] O
*I *2487:Y O *D sg13g2_nand2_1
*CAP
1 output_no[88] 0.000424296
2 *2487:Y 0.000424296
3 output_no[88] output_o[88] 0.000580787
4 output_no[88] *319:87 0
*RES
1 *2487:Y output_no[88] 43.7595 
*END

*D_NET *126 0.00158846
*CONN
*P output_no[89] O
*I *2489:Y O *D sg13g2_nand2_1
*CAP
1 output_no[89] 0.000499358
2 *2489:Y 0.000499358
3 output_no[89] output_o[89] 0.000541831
4 output_no[89] *338:94 4.79124e-05
*RES
1 *2489:Y output_no[89] 44.5011 
*END

*D_NET *127 0.0217225
*CONN
*P output_no[8] O
*I *2589:Y O *D sg13g2_nand2_1
*CAP
1 output_no[8] 8.28153e-05
2 *2589:Y 0.000709548
3 *127:16 0.00380305
4 *127:14 0.00372023
5 *127:12 0.000709548
6 output_no[8] output_o[8] 0.000165347
7 *127:12 *2573:A 0.000112541
8 *127:12 *2588:A 0
9 *127:12 *2588:B 4.77699e-05
10 *127:12 *2589:A 0
11 *127:12 *299:30 0
12 *127:12 *344:173 0.000532636
13 *127:12 *345:119 0.000334805
14 *127:16 *255:14 0.00638567
15 output_no[25] *127:12 0
16 *42:20 *127:16 0
17 *61:26 *127:16 0.00511858
18 *83:14 *127:16 0
19 *83:20 *127:16 0
*RES
1 *2589:Y *127:12 47.2615 
2 *127:12 *127:14 20 
3 *127:14 *127:16 44.8771 
4 *127:16 output_no[8] 20.7931 
*END

*D_NET *128 0.00155581
*CONN
*P output_no[90] O
*I *2491:Y O *D sg13g2_nand2_1
*CAP
1 output_no[90] 0.000474011
2 *2491:Y 0.000474011
3 output_no[90] output_o[90] 0.000527607
4 output_no[90] *321:67 0
5 output_no[90] *338:101 8.01846e-05
*RES
1 *2491:Y output_no[90] 44.2951 
*END

*D_NET *129 0.00172868
*CONN
*P output_no[91] O
*I *2493:Y O *D sg13g2_nand2_1
*CAP
1 output_no[91] 0.000254864
2 *2493:Y 0.000254864
3 output_no[91] output_o[91] 0.000583076
4 output_no[91] *326:79 0.000635873
*RES
1 *2493:Y output_no[91] 43.7595 
*END

*D_NET *130 0.00169442
*CONN
*P output_no[92] O
*I *2495:Y O *D sg13g2_nand2_1
*CAP
1 output_no[92] 0.000465074
2 *2495:Y 0.000465074
3 output_no[92] output_o[92] 0.000544039
4 output_no[92] *327:73 4.77699e-05
5 output_no[92] *328:92 0.000124547
6 output_no[92] *338:115 4.79124e-05
*RES
1 *2495:Y output_no[92] 44.5011 
*END

*D_NET *131 0.00157175
*CONN
*P output_no[93] O
*I *2497:Y O *D sg13g2_nand2_1
*CAP
1 output_no[93] 0.000465307
2 *2497:Y 0.000465307
3 output_no[93] output_o[93] 0.000528518
4 output_no[93] *338:122 0.000112614
*RES
1 *2497:Y output_no[93] 44.5114 
*END

*D_NET *132 0.0016367
*CONN
*P output_no[94] O
*I *2499:Y O *D sg13g2_nand2_1
*CAP
1 output_no[94] 0.000308952
2 *2499:Y 0.000308952
3 output_no[94] output_o[94] 0.000582729
4 output_no[94] *332:73 0.000436071
*RES
1 *2499:Y output_no[94] 43.7595 
*END

*D_NET *133 0.00201842
*CONN
*P output_no[95] O
*I *2501:Y O *D sg13g2_nand2_1
*CAP
1 output_no[95] 0.000824151
2 *2501:Y 0.000824151
3 output_no[95] output_o[95] 0.000322372
4 output_no[95] *2498:B 0
5 output_no[95] *2499:A 4.77425e-05
6 output_no[95] *2499:B 0
7 output_no[95] *313:85 0
8 output_no[95] *334:93 0
9 output_no[95] *339:142 0
*RES
1 *2501:Y output_no[95] 46.1139 
*END

*D_NET *134 0.00119892
*CONN
*P output_no[96] O
*I *2505:Y O *D sg13g2_nand2_1
*CAP
1 output_no[96] 0.00033468
2 *2505:Y 0.00033468
3 output_no[96] output_o[96] 0.000529562
4 output_no[96] *334:93 0
5 output_no[96] *341:37 0
*RES
1 *2505:Y output_no[96] 43.3063 
*END

*D_NET *135 0.00155505
*CONN
*P output_no[97] O
*I *2507:Y O *D sg13g2_nand2_1
*CAP
1 output_no[97] 0.000390576
2 *2507:Y 0.000390576
3 output_no[97] output_o[97] 0.00058362
4 output_no[97] *305:38 7.40536e-05
5 output_no[97] *326:90 0.000116226
*RES
1 *2507:Y output_no[97] 43.7595 
*END

*D_NET *136 0.00154615
*CONN
*P output_no[98] O
*I *2509:Y O *D sg13g2_nand2_1
*CAP
1 output_no[98] 0.000477799
2 *2509:Y 0.000477799
3 output_no[98] output_o[98] 0.000542671
4 output_no[98] *2508:A 0
5 output_no[98] *2509:A 0
6 output_no[98] *309:87 0
7 output_no[98] *340:33 4.78853e-05
*RES
1 *2509:Y output_no[98] 44.5011 
*END

*D_NET *137 0.0015277
*CONN
*P output_no[99] O
*I *2511:Y O *D sg13g2_nand2_1
*CAP
1 output_no[99] 0.000459552
2 *2511:Y 0.000459552
3 output_no[99] output_o[99] 0.000528411
4 output_no[99] *309:87 0
5 output_no[99] *334:93 0
6 output_no[99] *340:40 8.01846e-05
7 output_no[99] *340:48 0
*RES
1 *2511:Y output_no[99] 44.2951 
*END

*D_NET *138 0.0420629
*CONN
*P output_no[9] O
*I *2591:Y O *D sg13g2_nand2_1
*CAP
1 output_no[9] 0.00171166
2 *2591:Y 0.000277165
3 *138:14 0.00823811
4 *138:12 0.00793749
5 *138:8 0.0016882
6 output_no[9] output_o[10] 0
7 output_no[9] output_o[9] 0.000269969
8 *138:8 *281:107 0.000337965
9 *138:8 *294:54 0.000161083
10 *138:8 *294:58 0.000241052
11 *138:8 *313:19 0
12 *138:8 *344:84 4.77425e-05
13 *138:12 *2390:C 0
14 *138:12 *278:32 0
15 *138:14 *161:14 0.0114597
16 *138:14 *233:12 0
17 *6:63 *138:12 0
18 *33:10 *138:12 0.000177411
19 *116:14 *138:14 0.00951536
*RES
1 *2591:Y *138:8 43.1312 
2 *138:8 *138:12 31.9686 
3 *138:12 *138:14 81.2155 
4 *138:14 output_no[9] 36.0474 
*END

*D_NET *139 0.0131173
*CONN
*P output_o[0] O
*I *2572:Y O *D sg13g2_nor2_1
*CAP
1 output_o[0] 2.04079e-05
2 *2572:Y 0.000440648
3 *139:12 0.00403521
4 *139:10 0.0040148
5 *139:8 0.000440648
6 *139:8 output_o[16] 0
7 *139:12 output_o[2] 0.0041015
8 *139:12 *178:14 0
9 output_no[0] output_o[0] 6.4081e-05
10 output_no[15] *139:8 0
11 *50:12 *139:12 0
*RES
1 *2572:Y *139:8 43.3166 
2 *139:8 *139:10 20 
3 *139:10 *139:12 39.6859 
4 *139:12 output_o[0] 20.2987 
*END

*D_NET *140 0.00118425
*CONN
*P output_o[100] O
*I *2512:Y O *D sg13g2_nor2_1
*CAP
1 output_o[100] 0.000265876
2 *2512:Y 0.000265876
3 output_o[100] *311:64 0.000280998
4 output_no[100] output_o[100] 0.000371497
*RES
1 *2512:Y output_o[100] 42.7707 
*END

*D_NET *141 0.00138716
*CONN
*P output_o[101] O
*I *2514:Y O *D sg13g2_nor2_1
*CAP
1 output_o[101] 0.000256747
2 *2514:Y 0.000256747
3 output_o[101] *314:84 4.81157e-05
4 output_o[101] *343:10 0.000281613
5 output_no[101] output_o[101] 0.000543932
*RES
1 *2514:Y output_o[101] 43.09 
*END

*D_NET *142 0.0011952
*CONN
*P output_o[102] O
*I *2516:Y O *D sg13g2_nor2_1
*CAP
1 output_o[102] 0.000286906
2 *2516:Y 0.000286906
3 output_o[102] *2551:A 4.75425e-05
4 output_o[102] *341:98 4.77346e-05
5 output_no[102] output_o[102] 0.000526106
*RES
1 *2516:Y output_o[102] 42.8428 
*END

*D_NET *143 0.0012547
*CONN
*P output_o[103] O
*I *2518:Y O *D sg13g2_nor2_1
*CAP
1 output_o[103] 0.00025001
2 *2518:Y 0.00025001
3 output_o[103] *2552:A 0.000176557
4 output_o[103] *334:93 0
5 output_no[103] output_o[103] 0.000578117
*RES
1 *2518:Y output_o[103] 42.7707 
*END

*D_NET *144 0.00176053
*CONN
*P output_o[104] O
*I *2520:Y O *D sg13g2_nor2_1
*CAP
1 output_o[104] 0.000338653
2 *2520:Y 0.000338653
3 output_o[104] *2520:A 0.000126829
4 output_o[104] *319:97 0.0002802
5 output_o[104] *320:109 0.000176557
6 output_o[104] *341:119 0
7 output_no[104] output_o[104] 0.000374143
8 *32:8 output_o[104] 0.0001255
*RES
1 *2520:Y output_o[104] 44.0788 
*END

*D_NET *145 0.000758061
*CONN
*P output_o[105] O
*I *2522:Y O *D sg13g2_nor2_1
*CAP
1 output_o[105] 0.000170089
2 *2522:Y 0.000170089
3 output_o[105] *333:76 4.75425e-05
4 output_o[105] *341:129 4.77346e-05
5 output_no[105] output_o[105] 0.000322606
*RES
1 *2522:Y output_o[105] 41.854 
*END

*D_NET *146 0.00127741
*CONN
*P output_o[106] O
*I *2524:Y O *D sg13g2_nor2_1
*CAP
1 output_o[106] 0.000260799
2 *2524:Y 0.000260799
3 output_o[106] *332:86 0.000176083
4 output_no[106] output_o[106] 0.00057973
*RES
1 *2524:Y output_o[106] 42.7707 
*END

*D_NET *147 0.00140551
*CONN
*P output_o[107] O
*I *2526:Y O *D sg13g2_nor2_1
*CAP
1 output_o[107] 0.000517007
2 *2526:Y 0.000517007
3 output_o[107] *341:158 0
4 output_no[107] output_o[107] 0.000371497
*RES
1 *2526:Y output_o[107] 44.0788 
*END

*D_NET *148 0.000821636
*CONN
*P output_o[108] O
*I *2528:Y O *D sg13g2_nor2_1
*CAP
1 output_o[108] 0.000210088
2 *2528:Y 0.000210088
3 output_o[108] *341:178 7.99992e-05
4 output_o[108] *342:114 0
5 output_no[108] output_o[108] 0.00032146
*RES
1 *2528:Y output_o[108] 42.0703 
*END

*D_NET *149 0.00122122
*CONN
*P output_o[109] O
*I *2530:Y O *D sg13g2_nor2_1
*CAP
1 output_o[109] 0.000230304
2 *2530:Y 0.000230304
3 output_o[109] *341:178 0
4 output_o[109] *343:101 0.000177899
5 output_no[109] output_o[109] 0.00058271
*RES
1 *2530:Y output_o[109] 42.7707 
*END

*D_NET *150 0.0352761
*CONN
*P output_o[10] O
*I *2592:Y O *D sg13g2_nor2_1
*CAP
1 output_o[10] 0.00123026
2 *2592:Y 0
3 *150:12 0.00967489
4 *150:10 0.00971253
5 *150:6 0.00126791
6 *150:10 output_o[45] 0
7 *150:10 output_o[46] 0
8 *150:10 *2406:C 0
9 *150:10 *282:171 0
10 *150:10 *283:129 0.000644868
11 *150:10 *295:18 0
12 *150:10 *322:8 0
13 *150:10 *324:10 0.00043679
14 *150:10 *324:21 7.44237e-05
15 *150:12 *173:14 0.011911
16 *150:12 *222:14 0
17 *150:12 *309:12 0
18 output_no[10] output_o[10] 0.000323415
19 output_no[9] output_o[10] 0
20 *45:18 *150:12 0
*RES
1 *2592:Y *150:6 40 
2 *150:6 *150:10 31.9686 
3 *150:10 *150:12 92.4631 
4 *150:12 output_o[10] 33.8947 
*END

*D_NET *151 0.00169001
*CONN
*P output_o[110] O
*I *2532:Y O *D sg13g2_nor2_1
*CAP
1 output_o[110] 0.000396505
2 *2532:Y 0.000396505
3 output_o[110] *2532:B 1.54285e-05
4 output_o[110] *2535:B 0
5 output_o[110] *2565:A 8.00842e-05
6 output_o[110] *167:10 0
7 output_o[110] *331:124 0.000126047
8 output_o[110] *331:134 0.000176399
9 output_o[110] *341:188 0.000124547
10 output_no[110] output_o[110] 0.000374497
*RES
1 *2532:Y output_o[110] 44.1509 
*END

*D_NET *152 0.00115115
*CONN
*P output_o[111] O
*I *2534:Y O *D sg13g2_nor2_1
*CAP
1 output_o[111] 0.00026171
2 *2534:Y 0.00026171
3 output_o[111] *168:10 4.75425e-05
4 output_o[111] *333:88 0
5 output_o[111] *334:105 0
6 output_no[111] output_o[111] 0.000532452
7 *39:10 output_o[111] 4.77346e-05
*RES
1 *2534:Y output_o[111] 42.8428 
*END

*D_NET *153 0.00183001
*CONN
*P output_o[112] O
*I *2538:Y O *D sg13g2_nor2_1
*CAP
1 output_o[112] 0.000533869
2 *2538:Y 0.000533869
3 output_o[112] *307:72 0
4 output_o[112] *313:117 8.01575e-05
5 output_o[112] *333:109 0.000176083
6 output_o[112] *343:142 0.000111759
7 output_no[112] output_o[112] 0.00039427
8 *39:10 output_o[112] 0
*RES
1 *2538:Y output_o[112] 45.15 
*END

*D_NET *154 0.000945315
*CONN
*P output_o[113] O
*I *2540:Y O *D sg13g2_nor2_1
*CAP
1 output_o[113] 0.000352727
2 *2540:Y 0.000352727
3 output_o[113] *2547:B 0
4 output_o[113] *313:117 0
5 output_o[113] *342:176 0.000177583
6 output_no[113] output_o[113] 6.22773e-05
*RES
1 *2540:Y output_o[113] 43.3063 
*END

*D_NET *155 0.00152849
*CONN
*P output_o[114] O
*I *2542:Y O *D sg13g2_nor2_1
*CAP
1 output_o[114] 0.000388097
2 *2542:Y 0.000388097
3 output_o[114] *314:94 0
4 output_o[114] *334:116 0
5 output_o[114] *343:161 4.78769e-05
6 output_no[113] output_o[114] 0
7 output_no[114] output_o[114] 0.000270236
8 *29:8 output_o[114] 0.000386643
9 *41:12 output_o[114] 4.75425e-05
*RES
1 *2542:Y output_o[114] 43.8316 
*END

*D_NET *156 0.00181916
*CONN
*P output_o[115] O
*I *2544:Y O *D sg13g2_nor2_1
*CAP
1 output_o[115] 0.000196988
2 *2544:Y 0.000234864
3 *156:8 0.000431852
4 output_o[115] *334:116 0
5 *156:8 *334:116 0
6 *156:8 *343:169 7.31628e-05
7 *156:8 *343:175 0.000230586
8 output_no[115] output_o[115] 0.000166851
9 output_no[115] *156:8 0
10 output_no[116] output_o[115] 0.000242483
11 *39:14 output_o[115] 0.000242368
*RES
1 *2544:Y *156:8 42.0806 
2 *156:8 output_o[115] 42.4102 
*END

*D_NET *157 0.00140903
*CONN
*P output_o[116] O
*I *2546:Y O *D sg13g2_nor2_1
*CAP
1 output_o[116] 0.000457987
2 *2546:Y 0.000457987
3 output_o[116] *168:10 0.00027467
4 output_no[116] output_o[116] 0.000218387
5 *41:12 output_o[116] 0
*RES
1 *2546:Y output_o[116] 44.3569 
*END

*D_NET *158 0.00213871
*CONN
*P output_o[117] O
*I *2548:Y O *D sg13g2_nor2_1
*CAP
1 output_o[117] 0.000933663
2 *2548:Y 0.000933663
3 output_o[117] *168:10 0
4 output_no[117] output_o[117] 0.000271387
5 *30:10 output_o[117] 0
*RES
1 *2548:Y output_o[117] 47.9413 
*END

*D_NET *159 0.0168924
*CONN
*P output_o[118] O
*I *2550:Y O *D sg13g2_nor2_1
*CAP
1 output_o[118] 0.00057357
2 *2550:Y 0.00062054
3 *159:14 0.00422114
4 *159:12 0.00364757
5 *159:10 0.00062054
6 *159:10 *2551:A 0
7 *159:10 *2552:A 0.000208403
8 *159:10 *318:76 0.000445611
9 *159:10 *341:98 0
10 *159:10 *342:10 0
11 *159:10 *342:29 0
12 *159:10 *343:21 0.000434363
13 *159:14 *164:16 0.00457195
14 *159:14 *165:12 0
15 *159:14 *310:107 0
16 *159:14 *321:69 0
17 output_no[118] output_o[118] 0.000220038
18 *34:12 *159:14 0
19 *38:14 *159:14 0.00132864
20 *38:16 *159:14 0
*RES
1 *2550:Y *159:10 46.2315 
2 *159:10 *159:12 20 
3 *159:12 *159:14 39.4696 
4 *159:14 output_o[118] 24.9955 
*END

*D_NET *160 0.0105815
*CONN
*P output_o[119] O
*I *2552:Y O *D sg13g2_nor2_1
*CAP
1 output_o[119] 0.000132609
2 *2552:Y 5.029e-05
3 *160:12 0.00414145
4 *160:10 0.00400884
5 *160:8 5.029e-05
6 *160:12 *162:10 0
7 *160:12 *322:73 0.000508693
8 *160:12 *323:80 0.00109535
9 *160:12 *328:99 0
10 *160:12 *331:134 0
11 *160:12 *342:110 0.000211579
12 *160:12 *343:65 0
13 output_no[119] output_o[119] 0.00038237
14 *31:12 *160:12 0
*RES
1 *2552:Y *160:8 40.3502 
2 *160:8 *160:10 20 
3 *160:10 *160:12 40.5511 
4 *160:12 output_o[119] 21.7819 
*END

*D_NET *161 0.0436305
*CONN
*P output_o[11] O
*I *2594:Y O *D sg13g2_nor2_1
*CAP
1 output_o[11] 0.00129132
2 *2594:Y 8.41918e-05
3 *161:14 0.00820183
4 *161:12 0.0082555
5 *161:8 0.00142918
6 *161:8 *294:46 0
7 *161:8 *345:61 0.000112456
8 *161:12 *285:30 0.00112135
9 *161:12 *294:247 0
10 *161:12 *329:8 0
11 *161:14 *172:16 0
12 *161:14 *233:12 0.0107138
13 output_no[11] output_o[11] 0.000961217
14 *2421:B *161:12 0
15 *6:43 *161:12 0
16 *7:43 *161:12 0
17 *138:14 *161:14 0.0114597
*RES
1 *2594:Y *161:8 40.7519 
2 *161:8 *161:12 32.7102 
3 *161:12 *161:14 84.46 
4 *161:14 output_o[11] 35.3779 
*END

*D_NET *162 0.0146221
*CONN
*P output_o[120] O
*I *2554:Y O *D sg13g2_nor2_1
*CAP
1 output_o[120] 0.000184998
2 *2554:Y 0
3 *162:10 0.00360061
4 *162:8 0.00341561
5 *162:6 0
6 *162:10 *323:80 0
7 *162:10 *331:134 0.000537761
8 *162:10 *342:59 0.000210919
9 *162:10 *342:82 0.000439708
10 *162:10 *342:110 0
11 *162:10 *343:65 0.000604238
12 output_no[120] output_o[120] 0.000538807
13 *35:14 *162:10 0
14 *36:10 *162:10 0.00508941
15 *160:12 *162:10 0
*RES
1 *2554:Y *162:6 40 
2 *162:6 *162:8 20 
3 *162:8 *162:10 39.2533 
4 *162:10 output_o[120] 22.5235 
*END

*D_NET *163 0.0179693
*CONN
*P output_o[121] O
*I *2556:Y O *D sg13g2_nor2_1
*CAP
1 output_o[121] 0.000360148
2 *2556:Y 3.90199e-05
3 *163:12 0.0036581
4 *163:10 0.00329796
5 *163:8 3.90199e-05
6 *163:8 *340:118 7.31628e-05
7 *163:12 *166:14 0
8 output_no[121] output_o[121] 6.22773e-05
9 *32:12 *163:12 0.00525341
10 *34:12 *163:12 0
11 *37:10 *163:12 0.00518619
*RES
1 *2556:Y *163:8 40.3502 
2 *163:8 *163:10 20 
3 *163:10 *163:12 39.9022 
4 *163:12 output_o[121] 23.5123 
*END

*D_NET *164 0.017703
*CONN
*P output_o[122] O
*I *2558:Y O *D sg13g2_nor2_1
*CAP
1 output_o[122] 0.000429933
2 *2558:Y 0.000498391
3 *164:16 0.0035542
4 *164:10 0.00312427
5 *164:8 0.000498391
6 *164:8 *324:67 0
7 *164:8 *342:82 7.44237e-05
8 *164:16 *310:107 0.00319311
9 output_no[122] output_o[122] 0.000596194
10 *38:16 *164:16 0.00116208
11 *159:14 *164:16 0.00457195
*RES
1 *2558:Y *164:8 43.811 
2 *164:8 *164:10 20 
3 *164:10 *164:16 41.2515 
4 *164:16 output_o[122] 24.7483 
*END

*D_NET *165 0.0181459
*CONN
*P output_o[123] O
*I *2560:Y O *D sg13g2_nor2_1
*CAP
1 output_o[123] 0.000332876
2 *2560:Y 0.000192257
3 *165:12 0.00373248
4 *165:10 0.00339961
5 *165:8 0.000192257
6 *165:8 *325:131 0.000177127
7 output_no[123] output_o[123] 0.00080538
8 *34:12 *165:12 0.00493946
9 *37:10 *165:12 0
10 *38:14 *165:12 0
11 *38:16 *165:12 0.00437449
12 *159:14 *165:12 0
*RES
1 *2560:Y *165:8 41.5862 
2 *165:8 *165:10 20 
3 *165:10 *165:12 40.1185 
4 *165:12 output_o[123] 24.2539 
*END

*D_NET *166 0.0170971
*CONN
*P output_o[124] O
*I *2562:Y O *D sg13g2_nor2_1
*CAP
1 output_o[124] 0.000192578
2 *2562:Y 0.000144667
3 *166:14 0.00337693
4 *166:12 0.00318435
5 *166:10 0.000144667
6 *166:10 *330:57 0
7 *166:10 *340:164 0.000177481
8 output_no[124] output_o[124] 0.000649271
9 *32:12 *166:14 0.00400894
10 *36:10 *166:14 0.00521817
11 *37:10 *166:14 0
12 *38:16 *166:14 0
13 *163:12 *166:14 0
*RES
1 *2562:Y *166:10 41.3802 
2 *166:10 *166:12 20 
3 *166:12 *166:14 39.4696 
4 *166:14 output_o[124] 23.0179 
*END

*D_NET *167 0.0127462
*CONN
*P output_o[125] O
*I *2564:Y O *D sg13g2_nor2_1
*CAP
1 output_o[125] 0.001286
2 *2564:Y 0.000245523
3 *167:16 0.00378762
4 *167:10 0.00274714
5 *167:10 *303:73 0
6 *167:10 *329:104 0
7 *167:10 *331:124 0
8 *167:10 *331:134 0
9 *167:10 *342:129 1.54285e-05
10 *167:10 *343:112 4.75151e-05
11 *167:16 *2539:A 0
12 *167:16 *332:92 0.00037185
13 *167:16 *334:97 0.000436764
14 *167:16 *334:116 0.00142614
15 output_no[125] output_o[125] 6.4081e-05
16 output_o[110] *167:10 0
17 *39:14 output_o[125] 0.00231811
18 *39:14 *167:16 0
*RES
1 *2564:Y *167:10 41.9055 
2 *167:10 *167:16 45.3277 
3 *167:16 output_o[125] 35.759 
*END

*D_NET *168 0.0107536
*CONN
*P output_o[126] O
*I *2566:Y O *D sg13g2_nor2_1
*CAP
1 output_o[126] 0.000132311
2 *2566:Y 9.47725e-05
3 *168:10 0.00392666
4 *168:8 0.00388912
5 *168:8 *343:127 8.03146e-05
6 *168:10 *2546:B 0.00027444
7 *168:10 *2549:B 3.23417e-05
8 *168:10 *2567:A 0.000112426
9 *168:10 *311:85 8.02269e-05
10 *168:10 *314:94 0.000144542
11 *168:10 *333:109 0.000176143
12 *168:10 *342:161 0.000273361
13 *168:10 *342:168 0.000290477
14 *168:10 *343:142 0.000208342
15 *168:10 *343:157 0.000144216
16 *168:10 *343:169 8.00842e-05
17 output_no[126] output_o[126] 0.000491656
18 output_o[111] *168:10 4.75425e-05
19 output_o[116] *168:10 0.00027467
20 output_o[117] *168:10 0
21 *30:10 *168:10 0
22 *39:10 *168:8 0
23 *39:10 *168:10 0
24 *39:14 *168:10 0
25 *41:10 *168:10 0
26 *41:12 *168:10 0
*RES
1 *2566:Y *168:8 21.133 
2 *168:8 *168:10 39.2533 
3 *168:10 output_o[126] 22.2763 
*END

*D_NET *169 0.0124199
*CONN
*P output_o[127] O
*I *2568:Y O *D sg13g2_nor2_1
*CAP
1 output_o[127] 0.000211624
2 *2568:Y 3.85688e-05
3 *169:8 0.00341457
4 *169:6 0.00324152
5 output_no[127] output_o[127] 0.000705444
6 *40:24 *169:8 0
7 *41:12 *169:8 0.00480814
*RES
1 *2568:Y *169:6 20.3502 
2 *169:6 *169:8 32.1154 
3 *169:8 output_o[127] 23.5123 
*END

*D_NET *170 0.00405205
*CONN
*P output_o[12] O
*I *2596:Y O *D sg13g2_nor2_1
*CAP
1 output_o[12] 0.000305856
2 *2596:Y 0.000945913
3 *170:6 0.00125177
4 output_o[12] *189:12 0
5 *170:6 *2578:A 0
6 *170:6 *2578:B 0.000209756
7 *170:6 *178:8 0
8 *170:6 *189:8 0
9 *170:6 *200:6 0.00127648
10 output_no[12] output_o[12] 6.22734e-05
11 *3:13 *170:6 0
*RES
1 *2596:Y *170:6 30.4854 
2 *170:6 output_o[12] 22.7707 
*END

*D_NET *171 0.0445227
*CONN
*P output_o[13] O
*I *2598:Y O *D sg13g2_nor2_1
*CAP
1 output_o[13] 0.00130481
2 *2598:Y 0
3 *171:12 0.0088887
4 *171:10 0.00896063
5 *171:6 0.00137674
6 output_o[13] *178:12 0
7 *171:10 *2598:A 0.000124862
8 *171:10 *172:10 0
9 *171:10 *172:14 0
10 *171:10 *295:129 0
11 *171:10 *330:12 0.000694454
12 *171:10 *331:10 0
13 *171:10 *332:23 0
14 *171:12 *172:16 0.0127875
15 *171:12 *173:14 0
16 *171:12 *222:14 0.009903
17 *171:12 *233:12 0
18 output_no[13] output_o[13] 0.000481903
19 *2425:A *171:10 0
20 *2425:C *171:10 0
21 *3:306 *171:10 0
22 *7:17 *171:10 0
*RES
1 *2598:Y *171:6 40 
2 *171:6 *171:10 32.2158 
3 *171:10 *171:12 89.6512 
4 *171:12 output_o[13] 34.6363 
*END

*D_NET *172 0.0439821
*CONN
*P output_o[14] O
*I *2600:Y O *D sg13g2_nor2_1
*CAP
1 output_o[14] 0.00136682
2 *2600:Y 0.00044331
3 *172:16 0.00835668
4 *172:14 0.00763525
5 *172:10 0.0010887
6 *172:10 output_o[47] 0
7 *172:10 *285:73 0.000279156
8 *172:10 *295:129 0
9 *172:16 *233:12 0.00954653
10 output_no[14] output_o[14] 0.000269726
11 *44:12 *172:10 0.00107965
12 *44:16 *172:14 0.00112875
13 *161:14 *172:16 0
14 *171:10 *172:10 0
15 *171:10 *172:14 0
16 *171:12 *172:16 0.0127875
*RES
1 *2600:Y *172:10 45.3663 
2 *172:10 *172:14 27.519 
3 *172:14 *172:16 85.3252 
4 *172:16 output_o[14] 34.8835 
*END

*D_NET *173 0.0450794
*CONN
*P output_o[15] O
*I *2602:Y O *D sg13g2_nor2_1
*CAP
1 output_o[15] 0.00111346
2 *2602:Y 2.44742e-05
3 *173:14 0.00895379
4 *173:12 0.00900932
5 *173:8 0.00119346
6 *173:8 *334:12 0
7 *173:12 *2379:B 0
8 *173:12 *287:60 0
9 *173:12 *308:20 0
10 *173:12 *309:20 0.00129892
11 *173:12 *334:12 5.36839e-05
12 *173:14 *222:14 0.00912433
13 *173:14 *309:12 0
14 output_no[15] output_o[15] 0.00239699
15 output_no[50] *173:12 0
16 *45:10 *173:12 0
17 *150:12 *173:14 0.011911
18 *171:12 *173:14 0
*RES
1 *2602:Y *173:8 40.3193 
2 *173:8 *173:12 31.4742 
3 *173:12 *173:14 92.0305 
4 *173:14 output_o[15] 34.1419 
*END

*D_NET *174 0.00306829
*CONN
*P output_o[16] O
*I *2604:Y O *D sg13g2_nor2_1
*CAP
1 output_o[16] 0.000582297
2 *2604:Y 0.000552786
3 *174:8 0.00113508
4 output_no[16] output_o[16] 0.000798123
5 *3:13 *174:8 0
6 *44:22 output_o[16] 0
7 *139:8 output_o[16] 0
*RES
1 *2604:Y *174:8 45.9431 
2 *174:8 output_o[16] 6.2315 
*END

*D_NET *175 0.0011171
*CONN
*P output_o[17] O
*I *2606:X O *D sg13g2_and2_1
*CAP
1 output_o[17] 0.000371401
2 *2606:X 0.000371401
3 output_o[17] *2578:A 0
4 output_o[17] *2606:A 0
5 output_o[17] *296:16 0
6 output_o[17] *328:145 0
7 output_no[17] output_o[17] 0.000374303
*RES
1 *2606:X output_o[17] 43.9243 
*END

*D_NET *176 0.00103178
*CONN
*P output_o[18] O
*I *2608:X O *D sg13g2_and2_1
*CAP
1 output_o[18] 0.000329943
2 *2608:X 0.000329943
3 output_o[18] *275:143 0
4 output_o[18] *296:16 0
5 output_no[18] output_o[18] 0.000371891
*RES
1 *2608:X output_o[18] 43.2754 
*END

*D_NET *177 0.00085149
*CONN
*P output_o[19] O
*I *2610:X O *D sg13g2_and2_1
*CAP
1 output_o[19] 0.000239799
2 *2610:X 0.000239799
3 output_no[19] output_o[19] 0.000371891
*RES
1 *2610:X output_o[19] 42.5235 
*END

*D_NET *178 0.0090115
*CONN
*P output_o[1] O
*I *2574:Y O *D sg13g2_nor2_1
*CAP
1 output_o[1] 7.91334e-05
2 *2574:Y 0.000975989
3 *178:14 0.00312952
4 *178:12 0.0032769
5 *178:8 0.0012025
6 *178:8 *2578:B 0
7 *178:8 *200:6 0
8 *178:12 *189:12 0.000283372
9 output_no[0] output_o[1] 0
10 output_no[14] *178:8 0
11 output_no[1] output_o[1] 6.40802e-05
12 output_o[13] *178:12 0
13 *50:12 *178:8 0
14 *139:12 *178:14 0
15 *170:6 *178:8 0
*RES
1 *2574:Y *178:8 48.9713 
2 *178:8 *178:12 22.0806 
3 *178:12 *178:14 30.385 
4 *178:14 output_o[1] 21.2154 
*END

*D_NET *179 0.000952435
*CONN
*P output_o[20] O
*I *2612:X O *D sg13g2_and2_1
*CAP
1 output_o[20] 0.000290315
2 *2612:X 0.000290315
3 output_o[20] *299:45 0
4 output_no[20] output_o[20] 0.000371805
*RES
1 *2612:X output_o[20] 42.8428 
*END

*D_NET *180 0.00367804
*CONN
*P output_o[21] O
*I *2614:Y O *D sg13g2_nor3_1
*CAP
1 output_o[21] 0.000694538
2 *2614:Y 0.000694538
3 output_o[21] *2616:B 7.99584e-05
4 output_o[21] *181:8 0
5 output_o[21] *276:60 0
6 output_o[21] *284:91 0
7 output_o[21] *306:10 0.000919046
8 output_o[21] *306:105 0.000756765
9 output_no[21] output_o[21] 0.000533189
*RES
1 *2614:Y output_o[21] 49.2391 
*END

*D_NET *181 0.00270964
*CONN
*P output_o[22] O
*I *2616:Y O *D sg13g2_nor3_1
*CAP
1 output_o[22] 0.000127864
2 *2616:Y 0.000934602
3 *181:8 0.00106247
4 *181:8 *281:47 0.000127744
5 *181:8 *283:69 0
6 *181:8 *284:91 0.000394688
7 *181:8 *289:48 0
8 *181:8 *298:8 0
9 output_no[21] *181:8 0
10 output_no[22] output_o[22] 6.22734e-05
11 output_no[22] *181:8 0
12 output_o[21] *181:8 0
13 *61:22 *181:8 0
*RES
1 *2616:Y *181:8 49.2494 
2 *181:8 output_o[22] 1.9364 
*END

*D_NET *182 0.00374974
*CONN
*P output_o[23] O
*I *2293:Y O *D sg13g2_nor3_1
*CAP
1 output_o[23] 0.000720916
2 *2293:Y 0.000720916
3 output_o[23] *2293:B 0.00028766
4 output_o[23] *2382:B 0.00044076
5 output_o[23] *267:30 0
6 output_o[23] *283:69 0
7 output_no[23] output_o[23] 0.00157949
*RES
1 *2293:Y output_o[23] 49.1979 
*END

*D_NET *183 0.000986094
*CONN
*P output_o[24] O
*I *2299:X O *D sg13g2_and2_1
*CAP
1 output_o[24] 0.000306029
2 *2299:X 0.000306029
3 output_o[24] *2299:B 0
4 output_o[24] *281:47 0
5 output_no[24] output_o[24] 0.000374036
6 *61:14 output_o[24] 0
7 *72:12 output_o[24] 0
*RES
1 *2299:X output_o[24] 42.8428 
*END

*D_NET *184 0.00356174
*CONN
*P output_o[25] O
*I *2303:Y O *D sg13g2_nor3_1
*CAP
1 output_o[25] 0.000847126
2 *2303:Y 0.000847126
3 output_o[25] *2577:A 0
4 output_o[25] *2579:A 0.000573435
5 output_o[25] *284:104 0
6 output_o[25] *305:105 0
7 output_o[25] *309:10 0.000707887
8 output_no[25] output_o[25] 0.000586164
9 *72:12 output_o[25] 0
*RES
1 *2303:Y output_o[25] 49.1979 
*END

*D_NET *185 0.0035503
*CONN
*P output_o[26] O
*I *2307:Y O *D sg13g2_nor3_1
*CAP
1 output_o[26] 0.000731444
2 *2307:Y 0.000731444
3 output_o[26] *2304:A 0
4 output_o[26] *2308:C 0
5 output_o[26] *277:105 0.000695758
6 output_o[26] *282:34 0
7 output_o[26] *283:61 0
8 output_o[26] *284:42 0.000127472
9 output_no[26] output_o[26] 0.00126418
*RES
1 *2307:Y output_o[26] 49.1979 
*END

*D_NET *186 0.00343243
*CONN
*P output_o[27] O
*I *2309:Y O *D sg13g2_nor3_1
*CAP
1 output_o[27] 0.000775492
2 *2309:Y 0.000775492
3 output_o[27] *2573:A 0.000540835
4 output_o[27] *276:40 4.77083e-05
5 output_o[27] *278:84 0
6 output_o[27] *284:42 0
7 output_o[27] *290:16 0
8 output_o[27] *303:8 7.46351e-05
9 output_o[27] *344:173 0
10 output_no[27] output_o[27] 0.00121826
*RES
1 *2309:Y output_o[27] 49.0543 
*END

*D_NET *187 0.00100909
*CONN
*P output_o[28] O
*I *2313:X O *D sg13g2_and2_1
*CAP
1 output_o[28] 0.000248916
2 *2313:X 0.000248916
3 output_o[28] *2314:A 0.000127805
4 output_o[28] *319:10 0
5 output_o[28] *319:27 0
6 output_no[28] output_o[28] 0.000383453
*RES
1 *2313:X output_o[28] 42.5235 
*END

*D_NET *188 0.0035518
*CONN
*P output_o[29] O
*I *2315:Y O *D sg13g2_nor4_1
*CAP
1 output_o[29] 0.00106164
2 *2315:Y 0.00106164
3 output_o[29] *2402:C 0
4 output_o[29] *275:75 0
5 output_o[29] *276:30 1.53662e-05
6 output_o[29] *276:40 0
7 output_o[29] *278:61 0.000176083
8 output_o[29] *278:67 0.000228094
9 output_o[29] *279:28 0
10 output_o[29] *284:42 8.00842e-05
11 output_o[29] *291:32 0
12 output_o[29] *328:133 0
13 output_no[29] output_o[29] 0.000540556
14 *7:98 output_o[29] 0.000388332
*RES
1 *2315:Y output_o[29] 49.9807 
*END

*D_NET *189 0.0156457
*CONN
*P output_o[2] O
*I *2576:Y O *D sg13g2_nor2_1
*CAP
1 output_o[2] 0.00216955
2 *2576:Y 0.000852432
3 *189:12 0.00245878
4 *189:8 0.00114167
5 *189:8 *2572:A 0.000209756
6 *189:8 *2572:B 0.000209756
7 output_no[2] output_o[2] 0.000117112
8 output_o[12] *189:12 0
9 *3:13 *189:8 0
10 *50:12 output_o[2] 0.00410176
11 *139:12 output_o[2] 0.0041015
12 *170:6 *189:8 0
13 *178:12 *189:12 0.000283372
*RES
1 *2576:Y *189:8 49.1876 
2 *189:8 *189:12 23.3166 
3 *189:12 output_o[2] 47.9027 
*END

*D_NET *190 0.00273741
*CONN
*P output_o[30] O
*I *2317:Y O *D sg13g2_nor4_1
*CAP
1 output_o[30] 0.00107731
2 *2317:Y 0.00107731
3 output_o[30] *2402:C 0
4 output_o[30] *275:75 0
5 output_o[30] *279:28 0
6 output_o[30] *283:34 0
7 output_o[30] *284:24 4.73929e-05
8 output_o[30] *285:10 0
9 output_o[30] *327:8 0
10 output_no[30] output_o[30] 0.000535396
11 *3:112 output_o[30] 0
12 *6:126 output_o[30] 0
13 *6:150 output_o[30] 0
14 *42:8 output_o[30] 0
*RES
1 *2317:Y output_o[30] 49.5172 
*END

*D_NET *191 0.00860498
*CONN
*P output_o[31] O
*I *2321:Y O *D sg13g2_nor2_1
*CAP
1 output_o[31] 0.0005188
2 *2321:Y 8.83964e-05
3 *191:20 0.000728722
4 *191:12 0.00146852
5 *191:8 0.001347
6 output_o[31] *2580:A 0.000696125
7 output_o[31] *268:92 0
8 output_o[31] *286:38 0
9 output_o[31] *299:10 0.0010608
10 *191:12 *2330:B 0.000433342
11 *191:12 *267:59 0.000593633
12 *191:12 *270:118 0.000856912
13 *191:12 *277:75 0
14 *191:12 *277:83 0
15 *191:12 *291:16 0
16 *191:20 *2341:B 1.57858e-05
17 *191:20 *279:18 0.000112392
18 *191:20 *291:16 0
19 output_no[31] output_o[31] 0.000379286
20 *5:94 *191:12 0.00030526
*RES
1 *2321:Y *191:8 40.5974 
2 *191:8 *191:12 32.8647 
3 *191:12 *191:20 41.7819 
4 *191:20 output_o[31] 27.1482 
*END

*D_NET *192 0.00248615
*CONN
*P output_o[32] O
*I *2330:Y O *D sg13g2_nor2_1
*CAP
1 output_o[32] 0.000844965
2 *2330:Y 0.000844965
3 output_o[32] *280:10 0
4 output_o[32] *281:8 0
5 output_o[32] *283:20 0
6 output_no[32] output_o[32] 0.000796222
*RES
1 *2330:Y output_o[32] 48.034 
*END

*D_NET *193 0.00119473
*CONN
*P output_o[33] O
*I *2333:X O *D sg13g2_and2_1
*CAP
1 output_o[33] 0.000301124
2 *2333:X 0.000301124
3 output_o[33] *2322:B 7.99721e-05
4 output_o[33] *294:131 0
5 output_o[33] *344:141 8.01914e-05
6 output_no[33] output_o[33] 0.000432318
*RES
1 *2333:X output_o[33] 43.3063 
*END

*D_NET *194 0.00236677
*CONN
*P output_o[34] O
*I *2336:X O *D sg13g2_and2_1
*CAP
1 output_o[34] 0.000624743
2 *2336:X 0.000624743
3 output_o[34] *268:32 0.000144958
4 output_o[34] *278:55 0
5 output_o[34] *287:29 0.000176083
6 output_no[34] output_o[34] 0.000796242
*RES
1 *2336:X output_o[34] 46.4581 
*END

*D_NET *195 0.00182335
*CONN
*P output_o[35] O
*I *2339:X O *D sg13g2_and2_1
*CAP
1 output_o[35] 0.0004406
2 *2339:X 0.0004406
3 output_o[35] *2339:B 0.000228663
4 output_o[35] *2340:B 0.000124547
5 output_no[35] output_o[35] 0.000588945
*RES
1 *2339:X output_o[35] 44.8204 
*END

*D_NET *196 0.00125472
*CONN
*P output_o[36] O
*I *2342:X O *D sg13g2_and2_1
*CAP
1 output_o[36] 0.000334519
2 *2342:X 0.000334519
3 output_o[36] *294:88 0
4 output_o[36] *344:133 4.75425e-05
5 output_no[36] output_o[36] 0.000538145
*RES
1 *2342:X output_o[36] 43.5844 
*END

*D_NET *197 0.00390719
*CONN
*P output_o[37] O
*I *2344:Y O *D sg13g2_nor3_1
*CAP
1 output_o[37] 0.00087523
2 *2344:Y 0.00087523
3 output_o[37] *2343:A 0
4 output_o[37] *267:69 0.000956348
5 output_o[37] *268:14 0
6 output_o[37] *284:124 0
7 output_o[37] *318:8 0.000647129
8 output_no[37] output_o[37] 0.000553251
*RES
1 *2344:Y output_o[37] 49.9395 
*END

*D_NET *198 0.00352672
*CONN
*P output_o[38] O
*I *2346:Y O *D sg13g2_nor3_1
*CAP
1 output_o[38] 0.000687184
2 *2346:Y 0.000687184
3 output_o[38] *222:12 0
4 output_o[38] *283:91 0.000906712
5 output_o[38] *283:106 0.000653892
6 output_o[38] *284:203 0
7 output_no[38] output_o[38] 0.000591752
*RES
1 *2346:Y output_o[38] 48.4563 
*END

*D_NET *199 0.00291512
*CONN
*P output_o[39] O
*I *2348:Y O *D sg13g2_nor3_1
*CAP
1 output_o[39] 0.000921116
2 *2348:Y 0.000921116
3 output_o[39] *2348:B 0
4 output_o[39] *270:139 0
5 output_o[39] *282:122 1.51975e-05
6 output_o[39] *295:62 0
7 output_o[39] *314:10 0
8 output_o[39] *316:10 0
9 output_o[39] *345:82 0
10 output_no[39] output_o[39] 0.00105769
*RES
1 *2348:Y output_o[39] 48.7447 
*END

*D_NET *200 0.00784381
*CONN
*P output_o[3] O
*I *2578:Y O *D sg13g2_nor2_1
*CAP
1 output_o[3] 0.000233666
2 *2578:Y 0
3 *200:6 0.00325178
4 *200:4 0.00301811
5 *200:6 output_o[4] 0
6 output_no[3] output_o[3] 6.37726e-05
7 output_no[5] *200:6 0
8 *50:12 *200:6 0
9 *170:6 *200:6 0.00127648
10 *178:8 *200:6 0
*RES
1 *2578:Y *200:4 20 
2 *200:4 *200:6 28.2031 
3 *200:6 output_o[3] 22.5235 
*END

*D_NET *201 0.00095627
*CONN
*P output_o[40] O
*I *2350:X O *D sg13g2_and2_1
*CAP
1 output_o[40] 0.000209653
2 *2350:X 0.000209653
3 output_o[40] *281:86 0
4 output_o[40] *327:31 0
5 output_no[40] output_o[40] 0.000536963
*RES
1 *2350:X output_o[40] 42.5235 
*END

*D_NET *202 0.00314618
*CONN
*P output_o[41] O
*I *2352:Y O *D sg13g2_nor3_1
*CAP
1 output_o[41] 0.000827532
2 *2352:Y 0.000827532
3 output_o[41] *281:107 0
4 output_o[41] *325:8 0.000850345
5 output_o[41] *328:36 0
6 output_no[41] output_o[41] 0.000640766
*RES
1 *2352:Y output_o[41] 47.9619 
*END

*D_NET *203 0.00264263
*CONN
*P output_o[42] O
*I *2354:Y O *D sg13g2_nor3_1
*CAP
1 output_o[42] 0.00101469
2 *2354:Y 0.00101469
3 output_o[42] *295:30 7.97113e-05
4 output_o[42] *323:8 0
5 output_o[42] *323:21 0
6 output_o[42] *328:40 0
7 output_no[42] output_o[42] 0.000533545
*RES
1 *2354:Y output_o[42] 48.2503 
*END

*D_NET *204 0.00445558
*CONN
*P output_o[43] O
*I *2356:Y O *D sg13g2_nor3_1
*CAP
1 output_o[43] 0.00037516
2 *2356:Y 0.000831471
3 *204:12 0.00120663
4 output_o[43] *277:44 0.00054285
5 output_o[43] *283:110 0
6 *204:12 *2354:A 1.53311e-05
7 *204:12 *277:32 0
8 *204:12 *285:22 0.000179097
9 *204:12 *288:10 0
10 *204:12 *295:30 0
11 *204:12 *326:10 0
12 *204:12 *328:40 0
13 output_no[43] output_o[43] 0.00110798
14 output_no[43] *204:12 1.57249e-05
15 *6:57 *204:12 0.000181339
16 *7:43 *204:12 0
*RES
1 *2356:Y *204:12 47.5396 
2 *204:12 output_o[43] 5.2427 
*END

*D_NET *205 0.000990096
*CONN
*P output_o[44] O
*I *2358:X O *D sg13g2_and2_1
*CAP
1 output_o[44] 0.000295583
2 *2358:X 0.000295583
3 output_o[44] *294:247 0.000126172
4 output_o[44] *344:68 0
5 output_o[44] *345:61 4.78578e-05
6 output_no[44] output_o[44] 0.0002249
*RES
1 *2358:X output_o[44] 42.8428 
*END

*D_NET *206 0.00240299
*CONN
*P output_o[45] O
*I *2360:Y O *D sg13g2_nor4_1
*CAP
1 output_o[45] 0.000883199
2 *2360:Y 0.000883199
3 output_o[45] *266:12 0
4 output_o[45] *282:171 0
5 output_o[45] *286:55 0
6 output_o[45] *295:24 4.73929e-05
7 output_o[45] *322:8 0
8 output_no[44] output_o[45] 0
9 output_no[45] output_o[45] 0.000589196
10 *3:263 output_o[45] 0
11 *150:10 output_o[45] 0
*RES
1 *2360:Y output_o[45] 48.034 
*END

*D_NET *207 0.00257691
*CONN
*P output_o[46] O
*I *2362:Y O *D sg13g2_nor4_1
*CAP
1 output_o[46] 0.000961064
2 *2362:Y 0.000961064
3 output_o[46] *2406:C 0
4 output_o[46] *281:128 0
5 output_o[46] *283:161 0
6 output_o[46] *295:18 0
7 output_o[46] *295:24 0.000144294
8 output_o[46] *322:25 0
9 output_no[46] output_o[46] 0.00043026
10 *3:274 output_o[46] 8.02269e-05
11 *3:282 output_o[46] 0
12 *44:12 output_o[46] 0
13 *150:10 output_o[46] 0
*RES
1 *2362:Y output_o[46] 48.1885 
*END

*D_NET *208 0.00286283
*CONN
*P output_o[47] O
*I *2364:Y O *D sg13g2_nor2_1
*CAP
1 output_o[47] 0.000758243
2 *2364:Y 0.000758243
3 output_o[47] *2425:D 8.01995e-05
4 output_o[47] *287:52 0.000330693
5 output_o[47] *295:129 0.000141786
6 output_o[47] *331:10 0
7 output_no[47] output_o[47] 0.000793667
8 *6:19 output_o[47] 0
9 *172:10 output_o[47] 0
*RES
1 *2364:Y output_o[47] 47.8589 
*END

*D_NET *209 0.00126374
*CONN
*P output_o[48] O
*I *2371:Y O *D sg13g2_nor2_1
*CAP
1 output_o[48] 0.000442425
2 *2371:Y 0.000442425
3 output_o[48] *302:93 0
4 output_o[48] *329:47 0
5 output_o[48] *332:23 0
6 output_o[48] *345:32 0
7 output_no[48] output_o[48] 0.000378891
*RES
1 *2371:Y output_o[48] 43.7698 
*END

*D_NET *210 0.0014435
*CONN
*P output_o[49] O
*I *2375:Y O *D sg13g2_nor2_1
*CAP
1 output_o[49] 0.000340209
2 *2375:Y 0.000340209
3 output_o[49] *2376:B 0.000177282
4 output_o[49] *302:93 0
5 output_no[49] output_o[49] 0.000585799
*RES
1 *2375:Y output_o[49] 43.7595 
*END

*D_NET *211 0.0303304
*CONN
*P output_o[4] O
*I *2580:Y O *D sg13g2_nor2_1
*CAP
1 output_o[4] 0.000938139
2 *2580:Y 2.03582e-05
3 *211:26 0.0016115
4 *211:20 0.00526569
5 *211:18 0.00459233
6 *211:16 0.000994694
7 *211:8 0.00101505
8 *211:8 *283:34 7.33225e-05
9 *211:8 *327:8 7.30101e-05
10 *211:16 *296:46 0
11 *211:20 *304:14 0.00519587
12 *211:26 output_o[6] 0
13 *211:26 output_o[7] 0
14 output_no[3] output_o[4] 0
15 output_no[4] output_o[4] 6.37735e-05
16 output_no[5] output_o[4] 0.000597411
17 output_no[6] *211:26 0
18 output_no[7] *211:26 0
19 *3:13 output_o[4] 0
20 *22:12 *211:16 7.93742e-05
21 *105:18 *211:20 0.00980985
22 *200:6 output_o[4] 0
*RES
1 *2580:Y *211:8 40.3502 
2 *211:8 *211:16 49.785 
3 *211:16 *211:18 20 
4 *211:18 *211:20 61.9648 
5 *211:20 *211:26 47.7662 
6 *211:26 output_o[4] 30.0734 
*END

*D_NET *212 0.00135153
*CONN
*P output_o[50] O
*I *2379:Y O *D sg13g2_nor2_1
*CAP
1 output_o[50] 0.000450974
2 *2379:Y 0.000450974
3 output_o[50] *2379:B 7.40536e-05
4 output_o[50] *301:89 0
5 output_o[50] *303:20 0
6 output_no[50] output_o[50] 0.000375531
*RES
1 *2379:Y output_o[50] 44.1818 
*END

*D_NET *213 0.00185093
*CONN
*P output_o[51] O
*I *2383:Y O *D sg13g2_nor2_1
*CAP
1 output_o[51] 0.000359558
2 *2383:Y 0.000359558
3 output_o[51] *302:83 0
4 output_o[51] *329:47 0.000111828
5 output_o[51] *333:10 0.000437267
6 output_o[51] *333:23 0
7 output_no[51] output_o[51] 0.000582721
*RES
1 *2383:Y output_o[51] 44.2642 
*END

*D_NET *214 0.00150264
*CONN
*P output_o[52] O
*I *2387:Y O *D sg13g2_nor2_1
*CAP
1 output_o[52] 0.00037111
2 *2387:Y 0.00037111
3 output_o[52] *2388:B 0.000177481
4 output_no[52] output_o[52] 0.000582938
*RES
1 *2387:Y output_o[52] 43.7595 
*END

*D_NET *215 0.00170658
*CONN
*P output_o[53] O
*I *2391:Y O *D sg13g2_nor2_1
*CAP
1 output_o[53] 0.00022343
2 *2391:Y 0.000199527
3 *215:8 0.000422957
4 output_o[53] *301:57 0
5 output_o[53] *301:59 0
6 output_o[53] *322:31 0
7 output_o[53] *331:39 8.00842e-05
8 *215:8 *313:31 0.000177282
9 output_no[53] output_o[53] 0.000374487
10 output_no[53] *215:8 0.000228816
*RES
1 *2391:Y *215:8 42.0806 
2 *215:8 output_o[53] 42.3175 
*END

*D_NET *216 0.00167832
*CONN
*P output_o[54] O
*I *2395:Y O *D sg13g2_nor2_1
*CAP
1 output_o[54] 0.0003059
2 *2395:Y 0.0003059
3 output_o[54] *302:75 0
4 output_o[54] *316:44 0.000436071
5 output_o[54] *329:47 4.75151e-05
6 output_no[54] output_o[54] 0.000582938
*RES
1 *2395:Y output_o[54] 43.8316 
*END

*D_NET *217 0.00134367
*CONN
*P output_o[55] O
*I *2399:Y O *D sg13g2_nor2_1
*CAP
1 output_o[55] 0.000380292
2 *2399:Y 0.000380292
3 output_o[55] *2399:B 0
4 output_o[55] *302:73 0
5 output_no[55] output_o[55] 0.000583091
*RES
1 *2399:Y output_o[55] 43.7595 
*END

*D_NET *218 0.000819608
*CONN
*P output_o[56] O
*I *2403:Y O *D sg13g2_nor2_1
*CAP
1 output_o[56] 0.000178218
2 *2403:Y 0.000178218
3 output_o[56] *331:39 0.000124699
4 output_no[56] output_o[56] 0.000338472
*RES
1 *2403:Y output_o[56] 42.1012 
*END

*D_NET *219 0.00103499
*CONN
*P output_o[57] O
*I *2407:Y O *D sg13g2_nor2_1
*CAP
1 output_o[57] 0.000254326
2 *2407:Y 0.000254326
3 output_o[57] *301:51 4.77346e-05
4 output_o[57] *302:48 0
5 output_no[57] output_o[57] 0.000478604
*RES
1 *2407:Y output_o[57] 42.5956 
*END

*D_NET *220 0.00127243
*CONN
*P output_o[58] O
*I *2411:Y O *D sg13g2_nor2_1
*CAP
1 output_o[58] 0.000207307
2 *2411:Y 0.000207307
3 output_o[58] *301:34 0.000111685
4 output_o[58] *302:42 0.000144027
5 output_o[58] *326:42 0.00022762
6 output_o[58] *344:12 0
7 output_no[58] output_o[58] 0.000374488
*RES
1 *2411:Y output_o[58] 42.7501 
*END

*D_NET *221 0.00130626
*CONN
*P output_o[59] O
*I *2415:Y O *D sg13g2_nor2_1
*CAP
1 output_o[59] 0.000416234
2 *2415:Y 0.000416234
3 output_o[59] *272:22 0
4 output_o[59] *301:34 0
5 output_o[59] *325:35 4.77702e-05
6 output_no[59] output_o[59] 0.000426025
*RES
1 *2415:Y output_o[59] 43.9964 
*END

*D_NET *222 0.0412201
*CONN
*P output_o[5] O
*I *2582:Y O *D sg13g2_nor2_1
*CAP
1 output_o[5] 0.00111736
2 *2582:Y 2.44042e-05
3 *222:14 0.00849484
4 *222:12 0.00843939
5 *222:8 0.00108632
6 *222:12 *233:10 0.00227885
7 *222:12 *284:203 0
8 *222:12 *345:82 0
9 *222:14 *233:12 0
10 output_no[5] output_o[5] 0.000751588
11 output_o[38] *222:12 0
12 *150:12 *222:14 0
13 *171:12 *222:14 0.009903
14 *173:14 *222:14 0.00912433
*RES
1 *2582:Y *222:8 40.3193 
2 *222:8 *222:12 31.7214 
3 *222:12 *222:14 86.8393 
4 *222:14 output_o[5] 34.3891 
*END

*D_NET *223 0.00112704
*CONN
*P output_o[60] O
*I *2419:Y O *D sg13g2_nor2_1
*CAP
1 output_o[60] 0.000275199
2 *2419:Y 0.000275199
3 output_o[60] *272:41 0
4 output_o[60] *325:50 4.75425e-05
5 output_no[60] output_o[60] 0.000529098
*RES
1 *2419:Y output_o[60] 42.8428 
*END

*D_NET *224 0.000726181
*CONN
*P output_o[61] O
*I *2423:Y O *D sg13g2_nor2_1
*CAP
1 output_o[61] 0.000176518
2 *2423:Y 0.000176518
3 output_no[61] output_o[61] 0.000373146
*RES
1 *2423:Y output_o[61] 41.7819 
*END

*D_NET *225 0.0017565
*CONN
*P output_o[62] O
*I *2427:Y O *D sg13g2_nor2_1
*CAP
1 output_o[62] 0.000343871
2 *2427:Y 0.000343871
3 output_o[62] *302:27 0.000488261
4 output_o[62] *331:51 0
5 output_o[62] *332:42 0
6 output_no[62] output_o[62] 0.000580494
*RES
1 *2427:Y output_o[62] 44.0788 
*END

*D_NET *226 0.000984576
*CONN
*P output_o[63] O
*I *2431:Y O *D sg13g2_nor2_1
*CAP
1 output_o[63] 0.000249481
2 *2431:Y 0.000249481
3 output_o[63] *2431:B 0.000112621
4 output_o[63] *333:31 0
5 output_o[63] *334:33 0
6 output_no[63] output_o[63] 0.000372992
*RES
1 *2431:Y output_o[63] 42.5338 
*END

*D_NET *227 0.00133577
*CONN
*P output_o[64] O
*I *2436:Y O *D sg13g2_nor2_1
*CAP
1 output_o[64] 0.00037639
2 *2436:Y 0.00037639
3 output_o[64] *303:37 0
4 output_no[64] output_o[64] 0.000582992
*RES
1 *2436:Y output_o[64] 43.7595 
*END

*D_NET *228 0.000953063
*CONN
*P output_o[65] O
*I *2438:Y O *D sg13g2_nor2_1
*CAP
1 output_o[65] 0.000232668
2 *2438:Y 0.000232668
3 output_o[65] *306:28 4.77699e-05
4 output_o[65] *325:50 0
5 output_o[65] *337:28 1.54282e-05
6 output_no[65] output_o[65] 0.000424529
*RES
1 *2438:Y output_o[65] 42.3484 
*END

*D_NET *229 0.00142512
*CONN
*P output_o[66] O
*I *2440:Y O *D sg13g2_nor2_1
*CAP
1 output_o[66] 0.000398489
2 *2440:Y 0.000398489
3 output_o[66] *2439:A 0
4 output_o[66] *337:60 4.75425e-05
5 output_no[66] output_o[66] 0.000580602
6 *10:60 output_o[66] 0
*RES
1 *2440:Y output_o[66] 43.8316 
*END

*D_NET *230 0.00113565
*CONN
*P output_o[67] O
*I *2442:Y O *D sg13g2_nor2_1
*CAP
1 output_o[67] 0.000278102
2 *2442:Y 0.000278102
3 output_o[67] *307:39 0
4 output_no[67] output_o[67] 0.000579451
*RES
1 *2442:Y output_o[67] 42.7707 
*END

*D_NET *231 0.00118486
*CONN
*P output_o[68] O
*I *2444:Y O *D sg13g2_nor2_1
*CAP
1 output_o[68] 0.000302705
2 *2444:Y 0.000302705
3 output_no[68] output_o[68] 0.000579451
*RES
1 *2444:Y output_o[68] 43.09 
*END

*D_NET *232 0.00117448
*CONN
*P output_o[69] O
*I *2446:Y O *D sg13g2_nor2_1
*CAP
1 output_o[69] 0.000275798
2 *2446:Y 0.000275798
3 output_o[69] *325:50 4.75425e-05
4 output_o[69] *337:82 4.77346e-05
5 output_no[69] output_o[69] 0.000527602
*RES
1 *2446:Y output_o[69] 42.8428 
*END

*D_NET *233 0.0430745
*CONN
*P output_o[6] O
*I *2584:Y O *D sg13g2_nor2_1
*CAP
1 output_o[6] 0.00103389
2 *2584:Y 0
3 *233:12 0.00808281
4 *233:10 0.00808271
5 *233:6 0.00103379
6 *233:10 *2348:B 0
7 *233:10 *2390:B 0
8 *233:10 *270:139 0
9 output_no[6] output_o[6] 0.00230214
10 *116:14 *233:12 0
11 *138:14 *233:12 0
12 *161:14 *233:12 0.0107138
13 *171:12 *233:12 0
14 *172:16 *233:12 0.00954653
15 *211:26 output_o[6] 0
16 *222:12 *233:10 0.00227885
17 *222:14 *233:12 0
*RES
1 *2584:Y *233:6 40 
2 *233:6 *233:10 31.4742 
3 *233:10 *233:12 84.46 
4 *233:12 output_o[6] 35.1307 
*END

*D_NET *234 0.00113707
*CONN
*P output_o[70] O
*I *2448:Y O *D sg13g2_nor2_1
*CAP
1 output_o[70] 0.000278889
2 *2448:Y 0.000278889
3 output_no[70] output_o[70] 0.000579291
*RES
1 *2448:Y output_o[70] 42.7707 
*END

*D_NET *235 0.00117353
*CONN
*P output_o[71] O
*I *2450:Y O *D sg13g2_nor2_1
*CAP
1 output_o[71] 0.000313706
2 *2450:Y 0.000313706
3 output_no[71] output_o[71] 0.000546118
*RES
1 *2450:Y output_o[71] 43.09 
*END

*D_NET *236 0.00117705
*CONN
*P output_o[72] O
*I *2452:Y O *D sg13g2_nor2_1
*CAP
1 output_o[72] 0.000277088
2 *2452:Y 0.000277088
3 output_o[72] *325:50 4.75425e-05
4 output_o[72] *337:104 4.77346e-05
5 output_no[72] output_o[72] 0.000527602
*RES
1 *2452:Y output_o[72] 42.8428 
*END

*D_NET *237 0.00113707
*CONN
*P output_o[73] O
*I *2454:Y O *D sg13g2_nor2_1
*CAP
1 output_o[73] 0.000278889
2 *2454:Y 0.000278889
3 output_no[73] output_o[73] 0.000579291
*RES
1 *2454:Y output_o[73] 42.7707 
*END

*D_NET *238 0.00120222
*CONN
*P output_o[74] O
*I *2456:Y O *D sg13g2_nor2_1
*CAP
1 output_o[74] 0.000311542
2 *2456:Y 0.000311542
3 output_no[74] output_o[74] 0.000579138
*RES
1 *2456:Y output_o[74] 43.09 
*END

*D_NET *239 0.00120137
*CONN
*P output_o[75] O
*I *2458:Y O *D sg13g2_nor2_1
*CAP
1 output_o[75] 0.000313125
2 *2458:Y 0.000313125
3 output_o[75] *325:50 4.75151e-05
4 output_o[75] *337:134 0
5 output_no[75] output_o[75] 0.000527602
*RES
1 *2458:Y output_o[75] 42.8428 
*END

*D_NET *240 0.00113707
*CONN
*P output_o[76] O
*I *2460:Y O *D sg13g2_nor2_1
*CAP
1 output_o[76] 0.000278889
2 *2460:Y 0.000278889
3 output_no[76] output_o[76] 0.000579291
*RES
1 *2460:Y output_o[76] 42.7707 
*END

*D_NET *241 0.0011649
*CONN
*P output_o[77] O
*I *2462:Y O *D sg13g2_nor2_1
*CAP
1 output_o[77] 0.00031089
2 *2462:Y 0.00031089
3 output_no[77] output_o[77] 0.000543123
*RES
1 *2462:Y output_o[77] 43.09 
*END

*D_NET *242 0.00123132
*CONN
*P output_o[78] O
*I *2464:Y O *D sg13g2_nor2_1
*CAP
1 output_o[78] 0.000311762
2 *2464:Y 0.000311762
3 output_o[78] *2466:B 8.01913e-05
4 output_o[78] *325:75 0
5 output_o[78] *332:50 0
6 output_no[78] output_o[78] 0.000527603
*RES
1 *2464:Y output_o[78] 43.0591 
*END

*D_NET *243 0.00135024
*CONN
*P output_o[79] O
*I *2466:Y O *D sg13g2_nor2_1
*CAP
1 output_o[79] 0.000384397
2 *2466:Y 0.000384397
3 output_o[79] *331:91 0
4 output_o[79] *333:44 0
5 output_o[79] *334:66 0
6 output_no[79] output_o[79] 0.000581444
*RES
1 *2466:Y output_o[79] 43.7389 
*END

*D_NET *244 0.028607
*CONN
*P output_o[7] O
*I *2586:Y O *D sg13g2_nor2_1
*CAP
1 output_o[7] 0.000294803
2 *2586:Y 9.01651e-05
3 *244:12 0.00647075
4 *244:10 0.00617594
5 *244:8 9.01651e-05
6 *244:8 *294:88 0.000125944
7 *244:12 *298:12 0
8 *244:12 *310:51 0.00453602
9 *244:12 *320:37 0
10 output_no[7] output_o[7] 0.000911145
11 *11:12 *244:12 0
12 *33:14 *244:12 0.00991208
13 *211:26 output_o[7] 0
*RES
1 *2586:Y *244:8 40.8446 
2 *244:8 *244:10 20 
3 *244:10 *244:12 76.0243 
4 *244:12 output_o[7] 24.2539 
*END

*D_NET *245 0.00133297
*CONN
*P output_o[80] O
*I *2470:Y O *D sg13g2_nor2_1
*CAP
1 output_o[80] 0.000236513
2 *2470:Y 0.000236513
3 output_o[80] *272:51 0.000485455
4 output_no[80] output_o[80] 0.000374488
*RES
1 *2470:Y output_o[80] 43.09 
*END

*D_NET *246 0.00115468
*CONN
*P output_o[81] O
*I *2472:Y O *D sg13g2_nor2_1
*CAP
1 output_o[81] 0.000264629
2 *2472:Y 0.000264629
3 output_o[81] *331:91 4.75425e-05
4 output_o[81] *339:35 4.77346e-05
5 output_no[81] output_o[81] 0.000530141
*RES
1 *2472:Y output_o[81] 42.8428 
*END

*D_NET *247 0.00111052
*CONN
*P output_o[82] O
*I *2474:Y O *D sg13g2_nor2_1
*CAP
1 output_o[82] 0.000264421
2 *2474:Y 0.000264421
3 output_no[82] output_o[82] 0.000581678
*RES
1 *2474:Y output_o[82] 42.7707 
*END

*D_NET *248 0.00114921
*CONN
*P output_o[83] O
*I *2476:Y O *D sg13g2_nor2_1
*CAP
1 output_o[83] 0.000301776
2 *2476:Y 0.000301776
3 output_no[83] output_o[83] 0.000545663
*RES
1 *2476:Y output_o[83] 43.09 
*END

*D_NET *249 0.00115547
*CONN
*P output_o[84] O
*I *2478:Y O *D sg13g2_nor2_1
*CAP
1 output_o[84] 0.000265124
2 *2478:Y 0.000265124
3 output_o[84] *331:91 4.75425e-05
4 output_o[84] *339:57 4.75425e-05
5 output_no[84] output_o[84] 0.000530141
*RES
1 *2478:Y output_o[84] 42.8428 
*END

*D_NET *250 0.0011077
*CONN
*P output_o[85] O
*I *2480:Y O *D sg13g2_nor2_1
*CAP
1 output_o[85] 0.000262937
2 *2480:Y 0.000262937
3 output_no[85] output_o[85] 0.000581831
*RES
1 *2480:Y output_o[85] 42.7707 
*END

*D_NET *251 0.00116141
*CONN
*P output_o[86] O
*I *2482:Y O *D sg13g2_nor2_1
*CAP
1 output_o[86] 0.000297139
2 *2482:Y 0.000297139
3 output_o[86] *316:71 2.14736e-05
4 output_no[86] output_o[86] 0.000545663
*RES
1 *2482:Y output_o[86] 43.09 
*END

*D_NET *252 0.000809238
*CONN
*P output_o[87] O
*I *2484:Y O *D sg13g2_nor2_1
*CAP
1 output_o[87] 0.000372578
2 *2484:Y 0.000372578
3 output_o[87] *334:66 0
4 output_o[87] *339:94 0
5 output_no[87] output_o[87] 6.4081e-05
*RES
1 *2484:Y output_o[87] 42.8428 
*END

*D_NET *253 0.00109657
*CONN
*P output_o[88] O
*I *2486:Y O *D sg13g2_nor2_1
*CAP
1 output_o[88] 0.00025789
2 *2486:Y 0.00025789
3 output_o[88] *333:55 0
4 output_no[87] output_o[88] 0
5 output_no[88] output_o[88] 0.000580787
*RES
1 *2486:Y output_o[88] 42.7707 
*END

*D_NET *254 0.00139908
*CONN
*P output_o[89] O
*I *2488:Y O *D sg13g2_nor2_1
*CAP
1 output_o[89] 0.000278308
2 *2488:Y 0.000278308
3 output_o[89] *2488:A 0.000124547
4 output_o[89] *322:71 0.000176083
5 output_no[89] output_o[89] 0.000541831
*RES
1 *2488:Y output_o[89] 43.09 
*END

*D_NET *255 0.0164108
*CONN
*P output_o[8] O
*I *2588:Y O *D sg13g2_nor2_1
*CAP
1 output_o[8] 0.000117683
2 *2588:Y 0.000372158
3 *255:14 0.00420523
4 *255:12 0.00408755
5 *255:10 0.000372158
6 *255:10 *2577:A 0
7 *255:10 *2579:A 0.000177042
8 *255:10 *281:47 0
9 *255:10 *344:177 0.000209384
10 *255:10 *344:183 7.5138e-05
11 output_no[8] output_o[8] 0.000165347
12 *22:12 *255:14 0
13 *50:8 *255:10 0
14 *83:14 *255:14 0.000243416
15 *127:16 *255:14 0.00638567
*RES
1 *2588:Y *255:10 43.4505 
2 *255:10 *255:12 20 
3 *255:12 *255:14 42.7141 
4 *255:14 output_o[8] 21.0403 
*END

*D_NET *256 0.0011608
*CONN
*P output_o[90] O
*I *2490:Y O *D sg13g2_nor2_1
*CAP
1 output_o[90] 0.000292828
2 *2490:Y 0.000292828
3 output_o[90] *321:67 0
4 output_o[90] *339:119 4.75425e-05
5 output_no[90] output_o[90] 0.000527607
*RES
1 *2490:Y output_o[90] 42.8428 
*END

*D_NET *257 0.00109921
*CONN
*P output_o[91] O
*I *2492:Y O *D sg13g2_nor2_1
*CAP
1 output_o[91] 0.00025807
2 *2492:Y 0.00025807
3 output_no[91] output_o[91] 0.000583076
*RES
1 *2492:Y output_o[91] 42.7707 
*END

*D_NET *258 0.00115855
*CONN
*P output_o[92] O
*I *2494:Y O *D sg13g2_nor2_1
*CAP
1 output_o[92] 0.000307254
2 *2494:Y 0.000307254
3 output_o[92] *326:79 0
4 output_no[92] output_o[92] 0.000544039
*RES
1 *2494:Y output_o[92] 43.09 
*END

*D_NET *259 0.00119676
*CONN
*P output_o[93] O
*I *2496:Y O *D sg13g2_nor2_1
*CAP
1 output_o[93] 0.000294133
2 *2496:Y 0.000294133
3 output_o[93] *339:142 7.99721e-05
4 output_no[93] output_o[93] 0.000528518
*RES
1 *2496:Y output_o[93] 43.0591 
*END

*D_NET *260 0.00121718
*CONN
*P output_o[94] O
*I *2498:Y O *D sg13g2_nor2_1
*CAP
1 output_o[94] 0.000229183
2 *2498:Y 0.000229183
3 output_o[94] *339:150 0.000176083
4 output_no[94] output_o[94] 0.000582729
*RES
1 *2498:Y output_o[94] 42.7707 
*END

*D_NET *261 0.00118153
*CONN
*P output_o[95] O
*I *2500:Y O *D sg13g2_nor2_1
*CAP
1 output_o[95] 0.000308472
2 *2500:Y 0.000308472
3 output_o[95] *333:76 0.000242213
4 output_o[95] *334:93 0
5 output_no[95] output_o[95] 0.000322372
*RES
1 *2500:Y output_o[95] 43.1518 
*END

*D_NET *262 0.00106633
*CONN
*P output_o[96] O
*I *2504:Y O *D sg13g2_nor2_1
*CAP
1 output_o[96] 0.000268386
2 *2504:Y 0.000268386
3 output_o[96] *334:93 0
4 output_o[96] *341:37 0
5 output_no[96] output_o[96] 0.000529562
*RES
1 *2504:Y output_o[96] 42.8428 
*END

*D_NET *263 0.00110229
*CONN
*P output_o[97] O
*I *2506:Y O *D sg13g2_nor2_1
*CAP
1 output_o[97] 0.000259336
2 *2506:Y 0.000259336
3 output_no[97] output_o[97] 0.00058362
*RES
1 *2506:Y output_o[97] 42.7707 
*END

*D_NET *264 0.00117317
*CONN
*P output_o[98] O
*I *2508:Y O *D sg13g2_nor2_1
*CAP
1 output_o[98] 0.000315247
2 *2508:Y 0.000315247
3 output_o[98] *329:96 0
4 output_no[98] output_o[98] 0.000542671
*RES
1 *2508:Y output_o[98] 43.09 
*END

*D_NET *265 0.00113253
*CONN
*P output_o[99] O
*I *2510:Y O *D sg13g2_nor2_1
*CAP
1 output_o[99] 0.000278287
2 *2510:Y 0.000278287
3 output_o[99] *334:93 0
4 output_o[99] *341:68 4.75425e-05
5 output_no[99] output_o[99] 0.000528411
*RES
1 *2510:Y output_o[99] 42.8428 
*END

*D_NET *266 0.022356
*CONN
*P output_o[9] O
*I *2590:Y O *D sg13g2_nor2_1
*CAP
1 output_o[9] 0.0014902
2 *2590:Y 2.41961e-05
3 *266:14 0.00945609
4 *266:12 0.0092979
5 *266:8 0.0013562
6 *266:12 *282:152 0
7 *266:12 *282:171 0
8 *266:12 *285:45 0.000280355
9 *266:12 *286:55 0
10 *266:12 *329:8 0
11 *266:14 *318:30 0
12 output_no[9] output_o[9] 0.000269969
13 output_o[45] *266:12 0
14 *3:263 *266:12 0
15 *6:39 *266:12 0.000181034
16 *7:33 *266:12 0
17 *7:191 *266:12 0
18 *44:18 *266:14 0
19 *94:18 *266:14 0
20 *94:24 output_o[9] 0
*RES
1 *2590:Y *266:8 40.3193 
2 *266:8 *266:12 31.227 
3 *266:12 *266:14 92.2468 
4 *266:14 output_o[9] 33.8947 
*END

*D_NET *267 0.0212113
*CONN
*I *2349:A I *D sg13g2_nand3_1
*I *2394:B I *D sg13g2_nand3b_1
*I *2390:B I *D sg13g2_nand3b_1
*I *2398:B I *D sg13g2_nand3b_1
*I *2347:A I *D sg13g2_nand3_1
*I *2345:A I *D sg13g2_nand3_1
*I *2294:A I *D sg13g2_nand3_1
*I *2615:A I *D sg13g2_nand3_1
*I *2617:A I *D sg13g2_nand3_1
*I *2283:Y O *D sg13g2_nor2b_1
*CAP
1 *2349:A 0.000213486
2 *2394:B 4.37077e-05
3 *2390:B 0.000158453
4 *2398:B 0
5 *2347:A 0.000261067
6 *2345:A 0
7 *2294:A 3.48049e-05
8 *2615:A 0.000269468
9 *2617:A 0
10 *2283:Y 0.000123933
11 *267:106 0.000240027
12 *267:104 0.000913965
13 *267:83 0.000746956
14 *267:69 0.000756278
15 *267:59 0.00111526
16 *267:30 0.00109988
17 *267:20 0.00114846
18 *267:14 0.00271768
19 *267:8 0.00309408
20 *2294:A *2338:A 3.23417e-05
21 *2294:A *270:52 3.15716e-05
22 *2294:A *284:69 6.38791e-05
23 *2347:A *294:74 0
24 *2347:A *344:117 0
25 *2347:A *344:125 1.54008e-05
26 *2349:A *270:139 4.78578e-05
27 *2349:A *275:36 4.78578e-05
28 *2349:A *314:10 0.000417511
29 *2390:B *284:139 0
30 *2390:B *314:10 0.000284398
31 *2394:B *283:178 8.00842e-05
32 *2394:B *295:62 8.00842e-05
33 *2615:A *298:46 0
34 *267:14 *283:20 0.000665048
35 *267:14 *283:87 0.00062696
36 *267:14 *291:16 0.000826599
37 *267:14 *297:12 0
38 *267:30 *2338:A 7.96243e-05
39 *267:30 *2382:B 0
40 *267:30 *275:123 0
41 *267:30 *283:69 0
42 *267:30 *284:69 1.53666e-05
43 *267:30 *298:8 0
44 *267:30 *298:46 0.000112541
45 *267:59 *2321:B 0.000143493
46 *267:59 *2330:B 0.000529242
47 *267:59 *270:118 4.68833e-05
48 *267:69 *2345:B 4.77702e-05
49 *267:69 *284:124 0.000489793
50 *267:69 *294:82 0
51 *267:69 *313:12 0
52 *267:83 *2321:B 6.41265e-05
53 *267:83 *270:118 0.00014391
54 *267:104 *270:118 0.000597398
55 *267:104 *277:75 0.000208177
56 *267:104 *295:62 6.97862e-05
57 *267:104 *295:66 0
58 *267:104 *295:72 0
59 *267:104 *316:10 4.75166e-05
60 *267:106 *314:10 0.000157874
61 output_o[23] *267:30 0
62 output_o[37] *267:69 0.000956348
63 *2390:A_N *2390:B 0.000287389
64 *3:196 *2349:A 0.000180882
65 *3:196 *2390:B 0.000103073
66 *3:196 *267:106 0.000179348
67 *5:94 *267:8 0
68 *61:22 *2615:A 0
69 *61:22 *267:30 0
70 *191:12 *267:59 0.000593633
71 *233:10 *2390:B 0
*RES
1 *2283:Y *267:8 41.0918 
2 *267:8 *267:14 48.1396 
3 *267:14 *267:20 43.3475 
4 *267:20 *267:30 46.9834 
5 *267:30 *2617:A 20 
6 *267:30 *2615:A 22.5338 
7 *267:20 *2294:A 20.4275 
8 *267:8 *267:59 25.8607 
9 *267:59 *267:69 45.871 
10 *267:69 *2345:A 20 
11 *267:69 *2347:A 22.266 
12 *267:59 *267:83 0.9682 
13 *267:83 *2398:B 20 
14 *267:83 *267:104 26.8392 
15 *267:104 *267:106 0.8446 
16 *267:106 *2390:B 42.369 
17 *267:106 *2394:B 40.5356 
18 *267:104 *2349:A 42.7192 
*END

*D_NET *268 0.021114
*CONN
*I *2346:A I *D sg13g2_nor3_1
*I *2348:A I *D sg13g2_nor3_1
*I *2344:A I *D sg13g2_nor3_1
*I *2389:B I *D sg13g2_nor3_1
*I *2393:B I *D sg13g2_nor3_1
*I *2397:B I *D sg13g2_nor3_1
*I *2386:B I *D sg13g2_or3_1
*I *2341:A I *D sg13g2_nor2_1
*I *2385:B I *D sg13g2_nor3_1
*I *2293:A I *D sg13g2_nor3_1
*I *2616:A I *D sg13g2_nor3_1
*I *2614:A I *D sg13g2_nor3_1
*I *2284:Y O *D sg13g2_nand2b_1
*CAP
1 *2346:A 5.26863e-05
2 *2348:A 0.000220269
3 *2344:A 0
4 *2389:B 0.000168007
5 *2393:B 2.44753e-05
6 *2397:B 0
7 *2386:B 0
8 *2341:A 0
9 *2385:B 0.00010508
10 *2293:A 0
11 *2616:A 0
12 *2614:A 0.000270247
13 *2284:Y 0.00019429
14 *268:134 0.000482814
15 *268:127 0.00023813
16 *268:92 0.000185267
17 *268:54 0.000630295
18 *268:52 0.00206902
19 *268:44 0.00181406
20 *268:42 0.000626962
21 *268:34 0.000834083
22 *268:32 0.00106484
23 *268:22 0.00168038
24 *268:16 0.000661869
25 *268:14 0.000551586
26 *268:10 0.00060614
27 *2348:A *282:122 0.00025698
28 *2348:A *295:66 0
29 *2385:B *2385:C 1.54282e-05
30 *2385:B *2581:A 7.55526e-05
31 *2385:B *289:23 0.000103552
32 *2389:B *2389:C 1.54285e-05
33 *2389:B *313:12 4.77702e-05
34 *2389:B *315:8 0
35 *2389:B *318:8 0.000259006
36 *2393:B *269:33 1.54008e-05
37 *2393:B *284:124 4.77425e-05
38 *2614:A *2616:B 0
39 *268:10 *2330:B 0
40 *268:10 *284:116 3.15716e-05
41 *268:10 *284:131 0
42 *268:14 *2389:C 0
43 *268:14 *2398:C 0.000124699
44 *268:14 *269:33 0.00031371
45 *268:14 *282:122 2.14736e-05
46 *268:14 *282:178 0.000105481
47 *268:14 *318:8 0.000335184
48 *268:22 *2397:C 1.54556e-05
49 *268:22 *278:55 0
50 *268:22 *284:124 0.000143351
51 *268:22 *313:12 0
52 *268:22 *317:14 6.4771e-05
53 *268:22 *345:98 0
54 *268:32 *2397:C 0.000257554
55 *268:32 *269:95 1.54008e-05
56 *268:32 *277:75 0
57 *268:32 *277:83 0.00012937
58 *268:32 *278:55 0
59 *268:32 *294:144 0
60 *268:32 *317:14 0.000112826
61 *268:34 *277:83 3.23417e-05
62 *268:42 *269:95 0
63 *268:42 *277:83 0.000337659
64 *268:42 *297:12 0.000802481
65 *268:42 *307:10 0.00080215
66 *268:52 *2324:A 0
67 *268:52 *2324:B 0.000180763
68 *268:52 *270:30 0.00059894
69 *268:52 *270:48 0
70 *268:52 *276:40 0.000534026
71 *268:52 *276:54 0
72 *268:52 *278:84 0.000234443
73 *268:52 *282:99 0
74 *268:52 *284:42 0.000339583
75 *268:52 *289:23 0.00049453
76 *268:52 *290:36 0
77 *268:92 *279:10 0.000127811
78 *268:92 *279:103 0.000105753
79 *268:92 *279:112 0.000103073
80 *268:92 *285:10 0
81 *268:92 *291:16 0
82 *268:127 *282:122 1.54008e-05
83 *268:127 *284:131 0
84 *268:134 *282:122 0.000321776
85 *268:134 *284:203 0
86 *268:134 *295:72 0
87 output_o[31] *268:92 0
88 output_o[34] *268:32 0.000144958
89 output_o[37] *268:14 0
90 *2417:C *268:92 0
91 *3:129 *268:32 1.54008e-05
92 *3:129 *268:34 4.77425e-05
93 *3:129 *268:42 0.000143351
94 *3:142 *268:32 0.00074365
95 *3:144 *268:32 0
96 *3:155 *268:22 0
97 *4:9 *268:52 0
98 *7:98 *268:52 0
*RES
1 *2284:Y *268:10 21.7458 
2 *268:10 *268:14 24.0582 
3 *268:14 *268:16 20 
4 *268:16 *268:22 6.2109 
5 *268:22 *268:32 10.9592 
6 *268:32 *268:34 0.3193 
7 *268:34 *268:42 47.5602 
8 *268:42 *268:44 20 
9 *268:44 *268:52 38.8799 
10 *268:52 *268:54 3.9964 
11 *268:54 *2614:A 22.6162 
12 *268:54 *2616:A 20 
13 *268:52 *2293:A 20 
14 *268:44 *2385:B 41.1639 
15 *268:34 *268:92 41.9055 
16 *268:92 *2341:A 20 
17 *268:32 *2386:B 20 
18 *268:22 *2397:B 20 
19 *268:16 *2393:B 20.3193 
20 *268:14 *2389:B 41.6583 
21 *268:10 *268:127 0.3193 
22 *268:127 *2344:A 20 
23 *268:127 *268:134 2.266 
24 *268:134 *2348:A 22.678 
25 *268:134 *2346:A 20.8446 
*END

*D_NET *269 0.021182
*CONN
*I *2310:A I *D sg13g2_nand3_1
*I *2294:B I *D sg13g2_nand3_1
*I *2349:B I *D sg13g2_nand3_1
*I *2357:A I *D sg13g2_nand3_1
*I *2320:A I *D sg13g2_nand2_1
*I *2414:B I *D sg13g2_nand3b_1
*I *2398:C I *D sg13g2_nand3b_1
*I *2285:Y O *D sg13g2_nor2_1
*CAP
1 *2310:A 2.94259e-05
2 *2294:B 4.35836e-05
3 *2349:B 0
4 *2357:A 0.000105189
5 *2320:A 0.000260662
6 *2414:B 0
7 *2398:C 3.50398e-05
8 *2285:Y 2.88879e-05
9 *269:113 0.00107485
10 *269:95 0.00311216
11 *269:54 0.000421113
12 *269:45 0
13 *269:41 0.0012035
14 *269:39 0.00128637
15 *269:33 0.000916097
16 *269:14 0.000813005
17 *269:12 0.000930011
18 *269:8 0.00301036
19 *2294:B *2294:C 8.00842e-05
20 *2294:B *284:69 8.01118e-05
21 *2320:A *2364:A 7.99388e-05
22 *2320:A *277:8 0.000333382
23 *2320:A *277:32 7.30101e-05
24 *2320:A *285:30 0.000593944
25 *2357:A *275:36 8.00842e-05
26 *2357:A *277:32 0.00020958
27 *2357:A *285:30 0.000231053
28 *269:8 *281:8 0
29 *269:8 *287:8 7.30101e-05
30 *269:12 *283:87 0.0008934
31 *269:12 *285:14 0
32 *269:33 *270:139 0.000337632
33 *269:33 *275:36 0
34 *269:33 *294:204 1.54008e-05
35 *269:39 *294:204 7.30101e-05
36 *269:41 *285:14 0
37 *269:41 *320:45 0
38 *269:95 *2312:A 0
39 *269:95 *2401:C 9.90338e-05
40 *269:95 *2402:B 4.77425e-05
41 *269:95 *2402:C 8.00842e-05
42 *269:95 *277:83 0
43 *269:95 *277:93 0
44 *269:95 *278:55 0
45 *269:95 *278:61 0
46 *269:95 *287:8 0.000385225
47 *269:95 *289:23 0
48 *269:95 *290:16 0
49 *269:95 *291:32 0
50 *269:113 *2294:C 0
51 *269:113 *2308:C 0
52 *269:113 *2308:A 8.01116e-05
53 *269:113 *277:93 0
54 *269:113 *277:95 0.0001773
55 *269:113 *277:105 4.77425e-05
56 *269:113 *282:34 0.000240377
57 *269:113 *289:23 0
58 *269:113 *289:40 0.000533539
59 output_no[23] *269:113 0.000179386
60 output_no[27] *269:95 7.92524e-05
61 *2381:A *269:113 0.000176252
62 *2389:A *269:33 0.000103073
63 *2393:B *269:33 1.54008e-05
64 *2398:A_N *2398:C 0.000124547
65 *2398:A_N *269:33 0.000232111
66 *3:41 *269:113 0.000533539
67 *3:48 *269:113 3.23417e-05
68 *3:63 *269:95 0
69 *3:63 *269:113 0
70 *3:71 *269:95 0.0001122
71 *3:129 *269:95 0.000175809
72 *3:142 *269:95 0.000759051
73 *3:155 *269:33 1.54008e-05
74 *3:192 *269:33 0
75 *3:196 *269:39 7.48178e-05
76 *268:14 *2398:C 0.000124699
77 *268:14 *269:33 0.00031371
78 *268:32 *269:95 1.54008e-05
79 *268:42 *269:95 0
*RES
1 *2285:Y *269:8 40.3502 
2 *269:8 *269:12 30.2691 
3 *269:12 *269:14 20 
4 *269:14 *2398:C 40.5974 
5 *269:14 *269:33 28.1988 
6 *269:33 *269:39 41.0918 
7 *269:39 *269:41 9.6202 
8 *269:41 *269:45 40 
9 *269:45 *2414:B 20 
10 *269:41 *269:54 20.5356 
11 *269:54 *2320:A 43.3578 
12 *269:54 *2357:A 41.6274 
13 *269:33 *2349:B 20 
14 *269:8 *269:95 39.9305 
15 *269:95 *269:113 31.3918 
16 *269:113 *2294:B 40.5356 
17 *269:95 *2310:A 20.3502 
*END

*D_NET *270 0.027096
*CONN
*I *2397:C I *D sg13g2_nor3_1
*I *2356:A I *D sg13g2_nor3_1
*I *2413:B I *D sg13g2_nor3_1
*I *2348:B I *D sg13g2_nor3_1
*I *2309:A I *D sg13g2_nor3_1
*I *2381:B I *D sg13g2_nor3_1
*I *2382:B I *D sg13g2_or3_1
*I *2293:B I *D sg13g2_nor3_1
*I *2338:A I *D sg13g2_nor2_1
*I *2286:X O *D sg13g2_or2_1
*CAP
1 *2397:C 0.000396391
2 *2356:A 0
3 *2413:B 0
4 *2348:B 0.000165093
5 *2309:A 0
6 *2381:B 0.000138748
7 *2382:B 0.000205934
8 *2293:B 0.000123336
9 *2338:A 0.000182272
10 *2286:X 0.00084777
11 *270:158 0.000612193
12 *270:139 0.00160503
13 *270:120 0.00115793
14 *270:118 0.00115708
15 *270:110 0.00221245
16 *270:61 0.00032927
17 *270:52 0.000818908
18 *270:48 0.00131668
19 *270:38 0.000717026
20 *270:30 0.00141626
21 *270:18 0.00164173
22 *270:10 0.000590001
23 *2293:B *276:60 4.77425e-05
24 *2338:A *276:60 0.000272298
25 *2381:B *2308:C 0
26 *2381:B *2579:A 7.44263e-05
27 *2381:B *282:34 0.000232379
28 *2381:B *309:10 0.000366855
29 *2397:C *2339:B 0
30 *2397:C *278:55 0
31 *2397:C *294:144 0.000176551
32 *2397:C *317:14 0.000177547
33 *270:18 *276:20 0
34 *270:18 *279:10 0
35 *270:18 *306:12 0.000540348
36 *270:30 *276:40 0
37 *270:30 *279:10 0.000145105
38 *270:30 *284:20 0.000338984
39 *270:38 *276:40 0
40 *270:38 *284:42 1.54008e-05
41 *270:48 *276:46 0.000213989
42 *270:48 *276:48 0.000321728
43 *270:48 *276:54 1.54008e-05
44 *270:48 *282:34 0.00023256
45 *270:48 *284:42 0.00027467
46 *270:48 *309:10 0.000446829
47 *270:52 *276:54 0
48 *270:52 *282:42 0
49 *270:52 *284:55 0.000176018
50 *270:52 *284:69 0.00017659
51 *270:118 *277:75 0.00105183
52 *270:139 *275:36 0
53 *270:139 *278:136 8.00842e-05
54 *270:158 *2409:B 0.000161198
55 *270:158 *278:10 4.77425e-05
56 *270:158 *278:136 1.54008e-05
57 *270:158 *282:137 0.000230633
58 *270:158 *284:143 0.0003904
59 *270:158 *295:42 0.000286275
60 output_no[39] *270:139 7.92265e-05
61 output_o[23] *2293:B 0.00028766
62 output_o[23] *2382:B 0.00044076
63 output_o[39] *2348:B 0
64 output_o[39] *270:139 0
65 *2294:A *2338:A 3.23417e-05
66 *2294:A *270:52 3.15716e-05
67 *2302:B *270:10 0.0001773
68 *2306:B *270:110 0
69 *2315:A *270:30 0.00029626
70 *2349:A *270:139 4.78578e-05
71 *2373:A *270:52 0
72 *2382:A *2382:B 4.77425e-05
73 *3:41 *2382:B 4.77425e-05
74 *3:63 *270:52 0
75 *3:220 *270:139 0
76 *3:227 *270:158 0
77 *4:54 *270:10 0.000175677
78 *5:13 *270:110 0
79 *5:94 *270:110 0
80 *6:126 *270:30 0.000306734
81 *7:43 *270:158 4.77699e-05
82 *7:84 *270:30 0
83 *7:98 *270:30 0
84 *116:12 *270:110 0
85 *191:12 *270:118 0.000856912
86 *233:10 *2348:B 0
87 *233:10 *270:139 0
88 *267:30 *2338:A 7.96243e-05
89 *267:30 *2382:B 0
90 *267:59 *270:118 4.68833e-05
91 *267:83 *270:118 0.00014391
92 *267:104 *270:118 0.000597398
93 *268:22 *2397:C 1.54556e-05
94 *268:32 *2397:C 0.000257554
95 *268:52 *270:30 0.00059894
96 *268:52 *270:48 0
97 *269:33 *270:139 0.000337632
*RES
1 *2286:X *270:10 41.7819 
2 *270:10 *270:18 43.914 
3 *270:18 *270:30 33.3385 
4 *270:30 *270:38 41.3982 
5 *270:38 *270:48 26.5431 
6 *270:48 *270:52 25.9431 
7 *270:52 *2338:A 22.0497 
8 *270:52 *270:61 20 
9 *270:61 *2293:B 41.6583 
10 *270:61 *2382:B 42.3999 
11 *270:48 *2381:B 42.0806 
12 *270:38 *2309:A 20 
13 *2286:X *270:110 45.0985 
14 *270:110 *270:118 32.4527 
15 *270:118 *270:120 20 
16 *270:120 *2348:B 41.0918 
17 *270:120 *270:139 28.6932 
18 *270:139 *2413:B 20 
19 *270:139 *270:158 46.4478 
20 *270:158 *2356:A 20 
21 *270:110 *2397:C 44.7277 
*END

*D_NET *271 0.00480989
*CONN
*I *2469:B I *D sg13g2_nand2b_1
*I *2292:A I *D sg13g2_nand2_1
*I *2287:Y O *D sg13g2_nor2b_1
*CAP
1 *2469:B 0
2 *2292:A 0.000608912
3 *2287:Y 0
4 *271:37 0.000303675
5 *271:12 0.00121312
6 *271:4 0.000907879
7 *2292:A *305:20 0
8 *2292:A *309:43 0
9 *2292:A *320:67 0
10 *271:12 *293:24 0.000178518
11 *271:12 *313:50 0.000533424
12 *271:12 *328:48 0
13 *271:37 *292:10 0
14 *271:37 *313:50 0.000129589
15 *271:37 *313:60 1.54008e-05
16 *271:37 *339:8 0
17 *2469:A_N *271:37 1.54008e-05
18 *8:29 *271:37 0.000178041
19 *8:39 *271:12 0.000488446
20 *8:39 *271:37 4.77425e-05
21 *8:41 *271:12 4.77425e-05
22 *9:26 *271:12 0.000126829
23 *10:116 *271:37 1.51734e-05
*RES
1 *2287:Y *271:4 20 
2 *271:4 *271:12 46.386 
3 *271:12 *2292:A 26.3757 
4 *271:4 *271:37 43.1776 
5 *271:37 *2469:B 20 
*END

*D_NET *272 0.0200367
*CONN
*I *2468:B I *D sg13g2_nor2_1
*I *2291:A I *D sg13g2_nor2_1
*I *2288:Y O *D sg13g2_nand2b_1
*CAP
1 *2468:B 0
2 *2291:A 0
3 *2288:Y 0
4 *272:51 0.000350134
5 *272:43 0.0047054
6 *272:41 0.00508624
7 *272:22 0.000890889
8 *272:4 0.00162186
9 *272:22 *2328:B 0
10 *272:22 *293:51 0
11 *272:22 *301:44 3.96571e-05
12 *272:22 *325:35 0.000112826
13 *272:22 *325:50 0
14 *272:22 *329:47 0.000617648
15 *272:22 *344:12 0.000177272
16 *272:41 *2419:B 4.77425e-05
17 *272:41 *2420:B 2.18755e-05
18 *272:41 *302:149 0
19 *272:41 *325:50 0
20 *272:41 *329:47 0.000177442
21 *272:41 *330:24 0
22 *272:43 *314:50 0.00325984
23 *272:43 *323:42 0
24 *272:43 *323:61 0.00179953
25 *272:51 *338:12 0.00043481
26 output_no[57] *272:22 1.54556e-05
27 output_no[60] *272:41 8.01576e-05
28 output_no[61] *272:41 0
29 output_o[59] *272:22 0
30 output_o[60] *272:41 0
31 output_o[80] *272:51 0.000485455
32 *2571:C *272:22 0.000112426
33 *10:122 *272:22 0
34 *10:157 *272:22 0
*RES
1 *2288:Y *272:4 20 
2 *272:4 *272:22 48.6932 
3 *272:22 *2291:A 20 
4 *272:4 *272:41 46.2624 
5 *272:41 *272:43 50.9335 
6 *272:43 *272:51 43.8831 
7 *272:51 *2468:B 20 
*END

*D_NET *273 0.000923145
*CONN
*I *2329:A I *D sg13g2_nand2_1
*I *2292:B I *D sg13g2_nand2_1
*I *2289:Y O *D sg13g2_nor2b_1
*CAP
1 *2329:A 0.000206167
2 *2292:B 0
3 *2289:Y 0
4 *273:12 0.00017575
5 *273:4 0.000381917
6 *2329:A *2329:B 0
7 *2329:A *309:43 0
8 *2329:A *320:51 0
9 *2329:A *320:63 7.92265e-05
10 *3:353 *273:12 8.00842e-05
*RES
1 *2289:Y *273:4 20 
2 *273:4 *273:12 41.3802 
3 *273:12 *2292:B 20 
4 *273:4 *2329:A 21.9982 
*END

*D_NET *274 0.00115072
*CONN
*I *2291:B I *D sg13g2_nor2_1
*I *2328:A I *D sg13g2_nor2_1
*I *2290:Y O *D sg13g2_nand2b_1
*CAP
1 *2291:B 0
2 *2328:A 0.000224346
3 *2290:Y 0.000111324
4 *274:12 0.000224346
5 *274:10 0.000111324
6 *2328:A *2328:B 0.000273218
7 *2328:A *329:47 0
8 *274:10 *2328:B 8.01116e-05
9 *274:10 *275:8 0.000126047
10 *274:10 *293:51 0
*RES
1 *2290:Y *274:10 41.133 
2 *274:10 *274:12 20 
3 *274:12 *2328:A 22.1836 
4 *274:12 *2291:B 20 
*END

*D_NET *275 0.0457455
*CONN
*I *2322:A I *D sg13g2_nand2_1
*I *2318:A I *D sg13g2_nand3_1
*I *2313:A I *D sg13g2_and2_1
*I *2314:A I *D sg13g2_nand2_1
*I *2304:A I *D sg13g2_nand3_1
*I *2308:A I *D sg13g2_nand3_1
*I *2310:B I *D sg13g2_nand3_1
*I *2300:A I *D sg13g2_nand2_1
*I *2617:B I *D sg13g2_nand3_1
*I *2615:B I *D sg13g2_nand3_1
*I *2613:A I *D sg13g2_nand2_1
*I *2611:A I *D sg13g2_nand2_1
*I *2609:A I *D sg13g2_nand2_1
*I *2607:A I *D sg13g2_nand2_1
*I *2612:A I *D sg13g2_and2_1
*I *2610:A I *D sg13g2_and2_1
*I *2608:A I *D sg13g2_and2_1
*I *2605:A I *D sg13g2_nand2_1
*I *2606:A I *D sg13g2_and2_1
*I *2299:A I *D sg13g2_and2_1
*I *2294:C I *D sg13g2_nand3_1
*I *2316:A I *D sg13g2_nand3_1
*I *2291:Y O *D sg13g2_nor2_1
*CAP
1 *2322:A 0
2 *2318:A 0
3 *2313:A 0
4 *2314:A 0.000198462
5 *2304:A 0.000131589
6 *2308:A 5.59774e-05
7 *2310:B 0
8 *2300:A 0.000130099
9 *2617:B 0
10 *2615:B 0
11 *2613:A 0
12 *2611:A 0
13 *2609:A 0
14 *2607:A 0.000144235
15 *2612:A 0
16 *2610:A 0
17 *2608:A 0
18 *2605:A 0
19 *2606:A 4.43647e-05
20 *2299:A 2.37501e-05
21 *2294:C 0.000261588
22 *2316:A 2.87667e-05
23 *2291:Y 0.000185318
24 *275:237 0.000220172
25 *275:186 0.000290742
26 *275:184 0.000345696
27 *275:182 0.000448529
28 *275:156 5.93785e-05
29 *275:143 0.000318305
30 *275:141 0.000287271
31 *275:139 0.000323789
32 *275:137 0.000348623
33 *275:129 0.000622127
34 *275:125 0.000455059
35 *275:123 0.000643041
36 *275:115 0.00063896
37 *275:104 0.000416526
38 *275:91 0.00107679
39 *275:87 0.000688231
40 *275:85 0.000354849
41 *275:83 0.000902552
42 *275:77 0.000670554
43 *275:75 0.000666665
44 *275:56 0.000950298
45 *275:48 0.000469256
46 *275:46 0.000244996
47 *275:40 0.00175459
48 *275:36 0.00368615
49 *275:26 0.00288531
50 *275:16 0.00318463
51 *275:8 0.0024468
52 *2294:C *282:42 0
53 *2294:C *284:69 0
54 *2294:C *289:40 0.00022644
55 *2294:C *289:48 1.54008e-05
56 *2299:A *310:47 4.66107e-05
57 *2300:A *2299:B 0.000181634
58 *2300:A *280:18 0.000103073
59 *2304:A *2588:A 4.77425e-05
60 *2304:A *277:105 2.14736e-05
61 *2314:A *286:18 0.000181246
62 *2314:A *319:10 0
63 *2314:A *344:157 0
64 *2316:A *281:33 1.54282e-05
65 *2316:A *286:12 4.77699e-05
66 *2606:A *2578:A 8.02267e-05
67 *2607:A *296:16 0.000338197
68 *2607:A *297:51 0
69 *275:8 *2403:B 0
70 *275:16 *2426:B 9.36225e-05
71 *275:16 *287:54 0.000175693
72 *275:16 *295:10 0
73 *275:16 *313:50 0.000985124
74 *275:26 *2406:B 0
75 *275:26 *2410:B 0
76 *275:26 *2426:B 0.000209454
77 *275:26 *331:10 0.000124547
78 *275:36 *2409:B 0
79 *275:36 *2410:B 0.000323049
80 *275:36 *277:34 3.23417e-05
81 *275:36 *277:44 0.0001122
82 *275:36 *282:152 0
83 *275:36 *283:106 0
84 *275:36 *313:19 0.00166309
85 *275:36 *319:33 0.000489133
86 *275:36 *326:10 0
87 *275:40 *281:16 0
88 *275:40 *281:63 0
89 *275:40 *287:31 0
90 *275:40 *296:46 0.000574167
91 *275:46 *2322:B 0
92 *275:46 *344:147 0
93 *275:48 *283:26 0
94 *275:48 *286:12 8.01995e-05
95 *275:56 *2316:C 4.75425e-05
96 *275:56 *281:33 0
97 *275:56 *283:26 1.54285e-05
98 *275:56 *283:34 0.000144569
99 *275:56 *286:12 8.01995e-05
100 *275:75 *2316:C 4.77699e-05
101 *275:75 *2581:A 0.00014514
102 *275:75 *281:33 0
103 *275:75 *328:20 0.000274785
104 *275:83 *298:12 0.000868312
105 *275:83 *328:133 0
106 *275:85 *2308:C 0
107 *275:85 *277:105 0.000592373
108 *275:91 *297:12 0.000899426
109 *275:91 *307:10 0.00047418
110 *275:104 *282:42 0
111 *275:104 *310:8 0
112 *275:104 *310:47 0
113 *275:115 *2299:B 7.48842e-05
114 *275:123 *2578:A 0
115 *275:123 *298:46 0.000112541
116 *275:123 *310:47 0
117 *275:125 *2578:A 0
118 *275:125 *298:46 0.00027444
119 *275:129 *2578:A 0.000177229
120 *275:129 *298:46 0.000435682
121 *275:137 *2578:A 3.24213e-05
122 *275:137 *296:8 7.48842e-05
123 *275:137 *298:46 0
124 *275:137 *299:45 1.54556e-05
125 *275:139 *2578:A 0.000453895
126 *275:139 *297:51 1.54282e-05
127 *275:139 *298:46 0
128 *275:139 *299:45 8.03692e-05
129 *275:141 *2578:A 0.000129502
130 *275:141 *297:51 0.000144958
131 *275:143 *2578:A 0.000389096
132 *275:143 *297:51 8.03692e-05
133 *275:182 *296:8 0.00033916
134 *275:182 *296:16 0.000176484
135 *275:182 *299:30 0
136 *275:182 *299:45 0
137 *275:184 *296:16 0.000339556
138 *275:184 *298:46 0
139 *275:186 *296:16 0.000274467
140 *275:186 *297:51 0
141 *275:186 *298:46 0
142 *275:237 *297:12 0.000328299
143 *275:237 *307:10 0.000344238
144 output_no[17] *2606:A 0
145 output_no[18] *2607:A 7.94462e-05
146 output_no[20] *275:182 0
147 output_no[23] *2294:C 0
148 output_no[23] *2300:A 0
149 output_no[23] *275:104 0
150 output_no[28] *2314:A 7.47964e-05
151 output_no[29] *275:75 0
152 output_no[30] *275:56 7.92265e-05
153 output_no[39] *275:36 7.92265e-05
154 output_o[17] *2606:A 0
155 output_o[18] *275:143 0
156 output_o[26] *2304:A 0
157 output_o[28] *2314:A 0.000127805
158 output_o[29] *275:75 0
159 output_o[30] *275:75 0
160 *2290:A_N *275:16 3.23417e-05
161 *2294:B *2294:C 8.00842e-05
162 *2349:A *275:36 4.78578e-05
163 *2357:A *275:36 8.00842e-05
164 *2430:A_N *275:16 4.77425e-05
165 *3:274 *275:26 0
166 *3:282 *275:26 0.000434923
167 *3:289 *275:26 0
168 *3:293 *275:16 0
169 *3:323 *275:16 0.00111569
170 *3:336 *275:16 4.77425e-05
171 *3:345 *275:16 0.00223204
172 *3:353 *275:8 7.33225e-05
173 *10:134 *275:8 0.000125014
174 *11:12 *275:91 0
175 *22:12 *275:40 0
176 *50:8 *275:104 0
177 *50:8 *275:115 0
178 *61:22 *2300:A 4.77425e-05
179 *61:22 *275:123 0
180 *94:12 *275:40 7.93292e-05
181 *267:30 *275:123 0
182 *269:33 *275:36 0
183 *269:113 *2294:C 0
184 *269:113 *2308:A 8.01116e-05
185 *270:139 *275:36 0
186 *274:10 *275:8 0.000126047
*RES
1 *2291:Y *275:8 41.8334 
2 *275:8 *275:16 44.7818 
3 *275:16 *275:26 49.27 
4 *275:26 *275:36 40.0026 
5 *275:36 *275:40 36.5418 
6 *275:40 *275:46 40.3193 
7 *275:46 *275:48 1.8334 
8 *275:48 *275:56 2.8531 
9 *275:56 *2316:A 20.3193 
10 *275:56 *275:75 46.1903 
11 *275:75 *275:77 20 
12 *275:77 *275:83 45.7268 
13 *275:83 *275:85 2.8222 
14 *275:85 *275:87 20 
15 *275:87 *275:91 25.9431 
16 *275:91 *2294:C 42.4617 
17 *275:91 *275:104 2.8222 
18 *275:104 *2299:A 40.3116 
19 *275:104 *275:115 0.5974 
20 *275:115 *275:123 24.2333 
21 *275:123 *275:125 1.8334 
22 *275:125 *275:129 22.9149 
23 *275:129 *275:137 21.2051 
24 *275:137 *275:139 3.1312 
25 *275:139 *275:141 0.9682 
26 *275:141 *275:143 2.6986 
27 *275:143 *2606:A 20.5356 
28 *275:143 *275:156 40.5974 
29 *275:156 *2605:A 20 
30 *275:141 *2608:A 20 
31 *275:139 *2610:A 20 
32 *275:137 *2612:A 20 
33 *275:129 *275:182 22.7707 
34 *275:182 *275:184 2.266 
35 *275:184 *275:186 1.8334 
36 *275:186 *2607:A 22.266 
37 *275:186 *2609:A 20 
38 *275:184 *2611:A 20 
39 *275:182 *2613:A 20 
40 *275:125 *2615:B 20 
41 *275:123 *2617:B 20 
42 *275:115 *2300:A 41.6583 
43 *275:87 *275:237 42.6162 
44 *275:237 *2310:B 20 
45 *275:85 *2308:A 40.5356 
46 *275:83 *2304:A 41.236 
47 *275:77 *2314:A 42.575 
48 *275:75 *2313:A 20 
49 *275:48 *2318:A 20 
50 *275:46 *2322:A 20 
*END

*D_NET *276 0.0322272
*CONN
*I *2321:A I *D sg13g2_nor2_1
*I *2317:C I *D sg13g2_nor4_1
*I *2315:C I *D sg13g2_nor4_1
*I *2309:B I *D sg13g2_nor3_1
*I *2307:A I *D sg13g2_nor3_1
*I *2303:A I *D sg13g2_nor3_1
*I *2293:C I *D sg13g2_nor3_1
*I *2604:A I *D sg13g2_nor2_1
*I *2614:B I *D sg13g2_nor3_1
*I *2616:B I *D sg13g2_nor3_1
*I *2292:Y O *D sg13g2_nand2_1
*CAP
1 *2321:A 0.000201551
2 *2317:C 0
3 *2315:C 0
4 *2309:B 0
5 *2307:A 0
6 *2303:A 0
7 *2293:C 0
8 *2604:A 0
9 *2614:B 0
10 *2616:B 0.000236751
11 *2292:Y 0.000342179
12 *276:88 0.000648574
13 *276:64 0.000338871
14 *276:60 0.00141749
15 *276:54 0.0013005
16 *276:48 0.000863439
17 *276:46 0.000456674
18 *276:40 0.000906206
19 *276:30 0.000923385
20 *276:24 0.000244115
21 *276:20 0.00163382
22 *276:16 0.00201177
23 *276:12 0.00490269
24 *276:10 0.0047263
25 *276:8 0.000342179
26 *2321:A *2330:B 4.77083e-05
27 *2321:A *284:124 0
28 *276:8 *319:45 0
29 *276:12 *304:14 0.0048385
30 *276:12 *318:30 0
31 *276:12 *318:38 0.000598442
32 *276:20 *282:20 0.000675682
33 *276:20 *282:108 0.00166834
34 *276:20 *306:12 0
35 *276:30 *284:42 0.000240068
36 *276:40 *284:42 0.000566253
37 *276:46 *2303:B 0
38 *276:48 *2303:B 0
39 *276:54 *284:55 0
40 *276:54 *284:69 0
41 *276:60 *2335:A 0
42 *276:60 *2378:C 0
43 *276:60 *289:54 0
44 *276:88 *2335:A 0
45 *276:88 *2370:B 0
46 *276:88 *291:49 0
47 *276:88 *297:47 0
48 *276:88 *308:14 0
49 output_o[21] *2616:B 7.99584e-05
50 output_o[21] *276:60 0
51 output_o[27] *276:40 4.77083e-05
52 output_o[29] *276:30 1.53662e-05
53 output_o[29] *276:40 0
54 *2284:B *276:16 7.30101e-05
55 *2293:B *276:60 4.77425e-05
56 *2338:A *276:60 0.000272298
57 *2614:A *2616:B 0
58 *7:53 *276:20 4.669e-05
59 *7:68 *2321:A 5.15366e-05
60 *7:68 *276:16 7.30101e-05
61 *7:84 *276:30 4.79124e-05
62 *7:90 *276:30 0.000160527
63 *7:98 *276:30 3.23694e-05
64 *7:98 *276:40 1.54008e-05
65 *105:18 *276:12 4.70583e-05
66 *268:52 *276:40 0.000534026
67 *268:52 *276:54 0
68 *270:18 *276:20 0
69 *270:30 *276:40 0
70 *270:38 *276:40 0
71 *270:48 *276:46 0.000213989
72 *270:48 *276:48 0.000321728
73 *270:48 *276:54 1.54008e-05
74 *270:52 *276:54 0
*RES
1 *2292:Y *276:8 43.3166 
2 *276:8 *276:10 20 
3 *276:10 *276:12 52.015 
4 *276:12 *276:16 21.339 
5 *276:16 *276:20 37.8396 
6 *276:20 *276:24 40 
7 *276:24 *276:30 2.7192 
8 *276:30 *276:40 47.1379 
9 *276:40 *276:46 2.349 
10 *276:46 *276:48 2.266 
11 *276:48 *276:54 6.6744 
12 *276:54 *276:60 7.5396 
13 *276:60 *276:64 1.3802 
14 *276:64 *2616:B 22.6162 
15 *276:64 *2614:B 20 
16 *276:60 *276:88 46.7362 
17 *276:88 *2604:A 20 
18 *276:54 *2293:C 20 
19 *276:48 *2303:A 20 
20 *276:46 *2307:A 20 
21 *276:40 *2309:B 20 
22 *276:30 *2315:C 20 
23 *276:24 *2317:C 20 
24 *276:16 *2321:A 41.9055 
*END

*D_NET *277 0.026485
*CONN
*I *2410:B I *D sg13g2_nand3b_1
*I *2357:B I *D sg13g2_nand3_1
*I *2353:A I *D sg13g2_nand3_1
*I *2310:C I *D sg13g2_nand3_1
*I *2308:B I *D sg13g2_nand3_1
*I *2304:B I *D sg13g2_nand3_1
*I *2355:A I *D sg13g2_nand3_1
*I *2406:B I *D sg13g2_nand3b_1
*I *2414:C I *D sg13g2_nand3b_1
*I *2295:Y O *D sg13g2_nor2b_1
*CAP
1 *2410:B 0.000599733
2 *2357:B 0
3 *2353:A 0
4 *2310:C 0
5 *2308:B 0
6 *2304:B 0
7 *2355:A 0
8 *2406:B 0.000676364
9 *2414:C 3.80685e-05
10 *2295:Y 0.000138508
11 *277:105 0.000264506
12 *277:95 0.000437978
13 *277:93 0.000202592
14 *277:89 0.000394567
15 *277:83 0.00127267
16 *277:75 0.00332924
17 *277:69 0.00297426
18 *277:61 0.00102487
19 *277:44 0.000907172
20 *277:34 0.000456399
21 *277:32 0.000769257
22 *277:10 0.000714433
23 *277:8 0.000286178
24 *2406:B *2406:C 1.54282e-05
25 *2406:B *2421:D 0
26 *2406:B *282:152 0.000241167
27 *2406:B *282:171 0
28 *2410:B *2410:C 1.54282e-05
29 *2410:B *294:234 4.77425e-05
30 *2410:B *313:19 0.00056535
31 *2414:C *282:152 0
32 *277:32 *326:10 0.000228094
33 *277:34 *294:234 4.77425e-05
34 *277:44 *2355:B 0
35 *277:44 *285:22 0.000125944
36 *277:44 *294:48 0
37 *277:44 *294:54 0
38 *277:44 *294:234 1.54008e-05
39 *277:44 *345:76 0
40 *277:61 *2593:A 4.77425e-05
41 *277:61 *2593:B 0
42 *277:61 *2595:B 3.72123e-05
43 *277:61 *294:54 0
44 *277:61 *344:90 3.23417e-05
45 *277:61 *345:76 0.000530651
46 *277:69 *2595:B 0.000112426
47 *277:69 *278:43 7.30101e-05
48 *277:69 *278:136 0.000257838
49 *277:69 *325:8 0
50 *277:69 *344:90 0.000187038
51 *277:75 *278:51 0.00185495
52 *277:75 *279:103 0
53 *277:75 *279:112 0
54 *277:75 *283:20 0
55 *277:75 *295:62 0
56 *277:83 *2402:C 8.00842e-05
57 *277:83 *278:67 0.000208035
58 *277:83 *278:84 2.14736e-05
59 *277:89 *297:12 0.000669827
60 *277:105 *2308:C 4.77699e-05
61 *277:105 *2588:A 4.77425e-05
62 *277:105 *281:33 1.54008e-05
63 *277:105 *281:47 4.77425e-05
64 output_no[42] *277:61 7.92265e-05
65 output_o[26] *277:105 0.000695758
66 output_o[43] *277:44 0.00054285
67 *2295:A *277:8 7.48105e-05
68 *2304:A *277:105 2.14736e-05
69 *2320:A *277:8 0.000333382
70 *2320:A *277:32 7.30101e-05
71 *2357:A *277:32 0.00020958
72 *3:63 *277:93 0
73 *3:63 *277:95 0
74 *3:104 *277:83 0
75 *3:129 *277:83 0.000209481
76 *3:144 *277:75 0.000760377
77 *3:155 *277:75 0.000291583
78 *3:240 *2414:C 1.54282e-05
79 *3:248 *2406:B 0
80 *3:263 *2406:B 0
81 *33:10 *277:69 0
82 *74:8 *277:69 7.32897e-05
83 *191:12 *277:75 0
84 *191:12 *277:83 0
85 *204:12 *277:32 0
86 *267:104 *277:75 0.000208177
87 *268:32 *277:75 0
88 *268:32 *277:83 0.00012937
89 *268:34 *277:83 3.23417e-05
90 *268:42 *277:83 0.000337659
91 *269:95 *277:83 0
92 *269:95 *277:93 0
93 *269:113 *277:93 0
94 *269:113 *277:95 0.0001773
95 *269:113 *277:105 4.77425e-05
96 *270:118 *277:75 0.00105183
97 *275:26 *2406:B 0
98 *275:26 *2410:B 0
99 *275:36 *2410:B 0.000323049
100 *275:36 *277:34 3.23417e-05
101 *275:36 *277:44 0.0001122
102 *275:85 *277:105 0.000592373
*RES
1 *2295:Y *277:8 41.5862 
2 *277:8 *277:10 20 
3 *277:10 *2414:C 20.3193 
4 *277:10 *2406:B 26.1147 
5 *277:8 *277:32 21.8334 
6 *277:32 *277:34 0.3193 
7 *277:34 *277:44 44.5114 
8 *277:44 *2355:A 20 
9 *277:44 *277:61 5.253 
10 *277:61 *277:69 44.8101 
11 *277:69 *277:75 44.7097 
12 *277:75 *277:83 48.4563 
13 *277:83 *277:89 44.429 
14 *277:89 *277:93 20.3193 
15 *277:93 *277:95 1.8334 
16 *277:95 *277:105 43.9552 
17 *277:105 *2304:B 20 
18 *277:95 *2308:B 20 
19 *277:93 *2310:C 20 
20 *277:61 *2353:A 20 
21 *277:34 *2357:B 20 
22 *277:32 *2410:B 26.3963 
*END

*D_NET *278 0.0199094
*CONN
*I *2409:B I *D sg13g2_nor3_1
*I *2413:C I *D sg13g2_nor3_1
*I *2405:B I *D sg13g2_nor3_1
*I *2298:A I *D sg13g2_nor2_1
*I *2402:B I *D sg13g2_or3_1
*I *2307:B I *D sg13g2_nor3_1
*I *2303:B I *D sg13g2_nor3_1
*I *2309:C I *D sg13g2_nor3_1
*I *2401:B I *D sg13g2_nor3_1
*I *2352:A I *D sg13g2_nor3_1
*I *2354:A I *D sg13g2_nor3_1
*I *2356:B I *D sg13g2_nor3_1
*I *2296:Y O *D sg13g2_nand2b_1
*CAP
1 *2409:B 0.000192032
2 *2413:C 0
3 *2405:B 0.000246982
4 *2298:A 0
5 *2402:B 2.60565e-05
6 *2307:B 0
7 *2303:B 0.000260519
8 *2309:C 5.28347e-05
9 *2401:B 6.78533e-05
10 *2352:A 4.60783e-05
11 *2354:A 0.000151487
12 *2356:B 0
13 *2296:Y 0
14 *278:136 0.00036789
15 *278:97 0.000530697
16 *278:84 0.000835719
17 *278:67 0.00079369
18 *278:61 0.000836673
19 *278:55 0.00201041
20 *278:51 0.00285949
21 *278:45 0.00169355
22 *278:43 0.000419098
23 *278:32 0.000467416
24 *278:10 0.000345969
25 *278:4 0.000372578
26 *2303:B *2303:C 8.00842e-05
27 *2303:B *2307:C 4.77425e-05
28 *2303:B *284:55 0
29 *2352:A *282:122 0
30 *2354:A *295:30 0
31 *2354:A *295:42 1.54008e-05
32 *2401:B *2401:C 1.06466e-05
33 *2405:B *282:137 0.000144025
34 *2405:B *295:54 0
35 *278:10 *295:42 0
36 *278:32 *295:42 0
37 *278:43 *295:42 0
38 *278:51 *284:124 0
39 *278:51 *317:25 0
40 *278:55 *2339:B 4.77702e-05
41 *278:55 *345:98 0.000177271
42 *278:61 *2312:A 0.000272718
43 *278:61 *291:32 0.000103073
44 *278:61 *345:98 0.000289659
45 *278:61 *345:104 0.000597779
46 *278:67 *291:32 0.000228094
47 *278:67 *328:10 7.92265e-05
48 *278:84 *290:36 0
49 *278:84 *328:10 0
50 *278:97 *2307:C 1.54008e-05
51 *278:97 *284:55 0
52 *278:136 *325:8 0.000124547
53 output_o[27] *278:84 0
54 output_o[29] *278:61 0.000176083
55 output_o[29] *278:67 0.000228094
56 output_o[34] *278:55 0
57 *2323:B *278:84 8.00496e-05
58 *2397:C *278:55 0
59 *3:63 *278:84 0.000497014
60 *3:63 *278:97 0
61 *3:78 *278:84 9.7025e-05
62 *3:80 *278:67 0
63 *3:80 *278:84 6.46834e-05
64 *3:88 *2402:B 4.77425e-05
65 *3:155 *278:51 0
66 *3:166 *278:51 5.23627e-05
67 *3:192 *278:51 0.000838677
68 *3:220 *278:51 0
69 *3:227 *2405:B 0
70 *3:227 *2409:B 0
71 *6:71 *278:32 0
72 *7:43 *2354:A 0
73 *7:43 *278:10 0
74 *7:43 *278:32 0
75 *138:12 *278:32 0
76 *204:12 *2354:A 1.53311e-05
77 *268:22 *278:55 0
78 *268:32 *278:55 0
79 *268:52 *278:84 0.000234443
80 *269:95 *2402:B 4.77425e-05
81 *269:95 *278:55 0
82 *269:95 *278:61 0
83 *270:139 *278:136 8.00842e-05
84 *270:158 *2409:B 0.000161198
85 *270:158 *278:10 4.77425e-05
86 *270:158 *278:136 1.54008e-05
87 *275:36 *2409:B 0
88 *276:46 *2303:B 0
89 *276:48 *2303:B 0
90 *277:69 *278:43 7.30101e-05
91 *277:69 *278:136 0.000257838
92 *277:75 *278:51 0.00185495
93 *277:83 *278:67 0.000208035
94 *277:83 *278:84 2.14736e-05
*RES
1 *2296:Y *278:4 20 
2 *278:4 *278:10 2.1012 
3 *278:10 *2356:B 20 
4 *278:10 *2354:A 21.9158 
5 *278:4 *278:32 22.06 
6 *278:32 *2352:A 40.5356 
7 *278:32 *278:43 1.8334 
8 *278:43 *278:45 20 
9 *278:45 *278:51 34.4818 
10 *278:51 *278:55 32.6484 
11 *278:55 *278:61 26.7877 
12 *278:61 *278:67 22.7089 
13 *278:67 *2401:B 20.5356 
14 *278:67 *278:84 46.1182 
15 *278:84 *2309:C 20.8446 
16 *278:84 *278:97 3.0282 
17 *278:97 *2303:B 22.266 
18 *278:97 *2307:B 20 
19 *278:61 *2402:B 40.3193 
20 *278:55 *2298:A 20 
21 *278:45 *2405:B 22.266 
22 *278:43 *278:136 21.8746 
23 *278:136 *2413:C 20 
24 *278:136 *2409:B 21.8334 
*END

*D_NET *279 0.00954333
*CONN
*I *2298:B I *D sg13g2_nor2_1
*I *2312:A I *D sg13g2_nor2b_1
*I *2386:C I *D sg13g2_or3_1
*I *2341:B I *D sg13g2_nor2_1
*I *2417:D I *D sg13g2_nor4_1
*I *2402:C I *D sg13g2_or3_1
*I *2418:D I *D sg13g2_or4_1
*I *2385:C I *D sg13g2_nor3_1
*I *2401:C I *D sg13g2_nor3_1
*I *2324:A I *D sg13g2_nor2_1
*I *2297:Y O *D sg13g2_nand2_1
*CAP
1 *2298:B 0.000121713
2 *2312:A 0.000198302
3 *2386:C 0
4 *2341:B 4.44154e-06
5 *2417:D 0
6 *2402:C 0.00021489
7 *2418:D 3.08471e-05
8 *2385:C 0.000220241
9 *2401:C 5.67626e-05
10 *2324:A 9.60317e-05
11 *2297:Y 0.000621428
12 *279:112 0.000526258
13 *279:103 0.00025458
14 *279:49 0.000450248
15 *279:34 0.000532635
16 *279:28 0.000527647
17 *279:22 0.00080795
18 *279:18 0.000615624
19 *279:12 0.000260446
20 *279:10 0.000669765
21 *2324:A *2324:B 7.49633e-05
22 *2324:A *284:42 4.7562e-05
23 *2324:A *290:8 0.000129758
24 *2385:C *289:23 0
25 *2385:C *291:32 8.02269e-05
26 *2385:C *319:10 0
27 *279:10 *283:20 0
28 *279:10 *284:20 0
29 *279:18 *299:10 7.94189e-05
30 *279:28 *284:42 0
31 *279:34 *284:42 0
32 *279:34 *290:36 0.000111076
33 *279:49 *2324:B 0.000128742
34 *279:49 *289:23 0.00042319
35 *279:49 *290:8 0.000372959
36 output_o[29] *2402:C 0
37 output_o[29] *279:28 0
38 output_o[30] *2402:C 0
39 output_o[30] *279:28 0
40 *2323:A *2418:D 0
41 *2323:A *279:34 0.000272528
42 *2325:A *279:10 0
43 *2385:B *2385:C 1.54282e-05
44 *2401:B *2401:C 1.06466e-05
45 *2417:C *279:10 0
46 *2417:C *279:18 8.00842e-05
47 *3:71 *2385:C 0.000124773
48 *3:71 *279:49 0
49 *3:104 *279:22 0
50 *3:129 *279:18 0
51 *6:118 *279:18 0
52 *6:150 *279:22 0.000240326
53 *7:128 *279:10 0
54 *191:20 *2341:B 1.57858e-05
55 *191:20 *279:18 0.000112392
56 *268:52 *2324:A 0
57 *268:92 *279:10 0.000127811
58 *268:92 *279:103 0.000105753
59 *268:92 *279:112 0.000103073
60 *269:95 *2312:A 0
61 *269:95 *2401:C 9.90338e-05
62 *269:95 *2402:C 8.00842e-05
63 *270:18 *279:10 0
64 *270:30 *279:10 0.000145105
65 *277:75 *279:103 0
66 *277:75 *279:112 0
67 *277:83 *2402:C 8.00842e-05
68 *278:61 *2312:A 0.000272718
*RES
1 *2297:Y *279:10 45.4281 
2 *279:10 *279:12 20 
3 *279:12 *279:18 2.7192 
4 *279:18 *279:22 23.1312 
5 *279:22 *279:28 21.8746 
6 *279:28 *279:34 22.8325 
7 *279:34 *2324:A 41.1639 
8 *279:34 *279:49 2.8943 
9 *279:49 *2401:C 40.6463 
10 *279:49 *2385:C 41.8746 
11 *279:28 *2418:D 20.3502 
12 *279:22 *2402:C 41.8746 
13 *279:18 *2417:D 20 
14 *279:12 *2341:B 20.1056 
15 *279:10 *279:103 0.5974 
16 *279:103 *2386:C 40 
17 *279:103 *279:112 1.5862 
18 *279:112 *2312:A 41.8334 
19 *279:112 *2298:B 40.8446 
*END

*D_NET *280 0.0208342
*CONN
*I *2351:A I *D sg13g2_nand2_1
*I *2350:A I *D sg13g2_and2_1
*I *2300:B I *D sg13g2_nand2_1
*I *2299:B I *D sg13g2_and2_1
*I *2298:Y O *D sg13g2_nor2_1
*CAP
1 *2351:A 0
2 *2350:A 0.000230476
3 *2300:B 0
4 *2299:B 6.87131e-05
5 *2298:Y 0.000482567
6 *280:40 0.00214671
7 *280:18 0.00206582
8 *280:12 0.00391334
9 *280:10 0.000482567
10 *2350:A *281:107 0
11 *2350:A *294:60 0.00016111
12 *2350:A *294:62 3.23417e-05
13 *2350:A *294:72 1.54008e-05
14 *2350:A *294:204 7.32897e-05
15 *2350:A *313:19 0
16 *2350:A *314:10 0
17 *2350:A *314:25 0
18 *2350:A *327:31 0
19 *280:10 *328:20 0
20 *280:18 *283:38 0.00176554
21 *280:18 *296:36 0
22 *280:18 *299:30 0
23 *280:18 *319:27 0.0014092
24 *280:18 *327:25 0.000436764
25 *280:18 *345:119 0.000695347
26 *280:40 *283:106 0.000631274
27 *280:40 *319:27 0.00238245
28 *280:40 *327:25 0.00314497
29 *280:40 *327:31 0
30 output_no[39] *280:40 0
31 output_o[24] *2299:B 0
32 output_o[32] *280:10 0
33 *2300:A *2299:B 0.000181634
34 *2300:A *280:18 0.000103073
35 *42:16 *280:18 0
36 *50:8 *2299:B 0
37 *50:12 *280:18 0.000241412
38 *61:14 *2299:B 2.18716e-05
39 *61:14 *280:18 7.34081e-05
40 *275:115 *2299:B 7.48842e-05
*RES
1 *2298:Y *280:10 43.914 
2 *280:10 *280:12 20 
3 *280:12 *280:18 41.8051 
4 *280:18 *2299:B 41.0918 
5 *280:18 *2300:B 40 
6 *280:12 *280:40 43.1647 
7 *280:40 *2350:A 42.2454 
8 *280:40 *2351:A 40 
*END

*D_NET *281 0.032417
*CONN
*I *2422:B I *D sg13g2_nand3b_1
*I *2361:A I *D sg13g2_nand3_1
*I *2406:C I *D sg13g2_nand3b_1
*I *2353:B I *D sg13g2_nand3_1
*I *2390:C I *D sg13g2_nand3b_1
*I *2345:B I *D sg13g2_nand3_1
*I *2304:C I *D sg13g2_nand3_1
*I *2615:C I *D sg13g2_nand3_1
*I *2316:B I *D sg13g2_nand3_1
*I *2301:Y O *D sg13g2_nor2b_1
*CAP
1 *2422:B 0
2 *2361:A 7.11441e-05
3 *2406:C 0.000544783
4 *2353:B 6.52323e-05
5 *2390:C 0.000601153
6 *2345:B 7.82187e-05
7 *2304:C 0
8 *2615:C 0
9 *2316:B 0
10 *2301:Y 0.000712571
11 *281:158 0.000578444
12 *281:141 0.000649588
13 *281:128 0.000723
14 *281:124 0.00157181
15 *281:107 0.00202227
16 *281:86 0.0013986
17 *281:84 0.00112102
18 *281:63 0.00213022
19 *281:47 0.0013792
20 *281:33 0.00261863
21 *281:16 0.00224244
22 *281:10 0.00216799
23 *281:8 0.000712571
24 *2345:B *294:74 1.54556e-05
25 *2345:B *294:82 4.79124e-05
26 *2353:B *294:54 0.000112314
27 *2353:B *294:58 1.54008e-05
28 *2353:B *344:90 0.000112314
29 *2361:A *285:54 0.000112198
30 *2390:C *320:43 0
31 *2390:C *327:31 0.000748856
32 *2406:C *283:129 0.000486662
33 *281:8 *283:8 0
34 *281:8 *294:131 0.000124547
35 *281:16 *296:46 0
36 *281:16 *298:12 0
37 *281:33 *2316:C 0
38 *281:33 *2581:A 8.02269e-05
39 *281:33 *2588:A 0
40 *281:33 *2589:A 0
41 *281:33 *286:12 0
42 *281:33 *290:20 0
43 *281:33 *299:30 0
44 *281:33 *320:22 0
45 *281:33 *344:165 8.01995e-05
46 *281:47 *2578:A 0.000662348
47 *281:47 *2579:A 0.000192494
48 *281:47 *2588:A 0
49 *281:47 *290:20 0
50 *281:47 *299:30 0
51 *281:47 *305:105 4.68833e-05
52 *281:47 *310:47 0.000258897
53 *281:63 *287:31 0.00125744
54 *281:63 *298:12 0
55 *281:84 *2585:A 8.00842e-05
56 *281:84 *328:28 0.00101723
57 *281:84 *344:117 0
58 *281:86 *327:31 0.000521796
59 *281:107 *294:58 0
60 *281:107 *313:19 0
61 *281:107 *344:84 0
62 *281:124 *283:106 0
63 *281:124 *283:123 0.00124492
64 *281:124 *283:161 4.75151e-05
65 *281:124 *286:40 0
66 *281:124 *322:25 0
67 *281:124 *323:21 0
68 *281:124 *328:36 0.00037185
69 *281:124 *344:84 0
70 *281:128 *283:129 0.000312816
71 *281:128 *322:25 0
72 *281:158 *2600:A 0.000112198
73 *281:158 *285:54 0.000161338
74 *281:158 *285:73 0.000417791
75 *281:158 *294:26 0.000227935
76 *281:158 *329:47 0.000175836
77 *281:158 *331:10 0.000227935
78 *281:158 *345:47 0
79 output_no[29] *281:33 0.000177415
80 output_no[37] *281:84 0.000298824
81 output_no[40] *281:86 0
82 output_no[41] *281:124 0
83 output_no[46] *281:158 0
84 output_o[24] *281:47 0
85 output_o[32] *281:8 0
86 output_o[40] *281:86 0
87 output_o[41] *281:107 0
88 output_o[46] *2406:C 0
89 output_o[46] *281:128 0
90 *2316:A *281:33 1.54282e-05
91 *2350:A *281:107 0
92 *2390:A_N *2390:C 0.000338925
93 *2406:B *2406:C 1.54282e-05
94 *3:142 *281:8 0
95 *3:196 *2390:C 0.000124824
96 *3:263 *2406:C 1.54282e-05
97 *3:274 *2406:C 0.000112561
98 *22:8 *281:124 0
99 *33:10 *281:86 0
100 *72:12 *281:47 0
101 *94:12 *281:63 7.93292e-05
102 *138:8 *281:107 0.000337965
103 *138:12 *2390:C 0
104 *150:10 *2406:C 0
105 *181:8 *281:47 0.000127744
106 *255:10 *281:47 0
107 *267:69 *2345:B 4.77702e-05
108 *269:8 *281:8 0
109 *275:40 *281:16 0
110 *275:40 *281:63 0
111 *275:56 *281:33 0
112 *275:75 *281:33 0
113 *277:105 *281:33 1.54008e-05
114 *277:105 *281:47 4.77425e-05
*RES
1 *2301:Y *281:8 45.7886 
2 *281:8 *281:10 20 
3 *281:10 *281:16 48.3224 
4 *281:16 *2316:B 20 
5 *281:16 *281:33 11.124 
6 *281:33 *281:47 33.5342 
7 *281:47 *2615:C 40 
8 *281:33 *2304:C 20 
9 *281:10 *281:63 31.1343 
10 *281:63 *2345:B 40.6695 
11 *281:63 *281:84 48.7138 
12 *281:84 *281:86 2.575 
13 *281:86 *2390:C 46.6435 
14 *281:86 *281:107 44.841 
15 *281:107 *2353:B 40.7519 
16 *281:107 *281:124 34.214 
17 *281:124 *281:128 21.8334 
18 *281:128 *2406:C 44.8101 
19 *281:128 *281:141 20 
20 *281:141 *2361:A 20.7519 
21 *281:141 *281:158 46.2727 
22 *281:158 *2422:B 20 
*END

*D_NET *282 0.0263305
*CONN
*I *2389:C I *D sg13g2_nor3_1
*I *2344:B I *D sg13g2_nor3_1
*I *2360:C I *D sg13g2_nor4_1
*I *2421:D I *D sg13g2_nor4_1
*I *2405:C I *D sg13g2_nor3_1
*I *2352:B I *D sg13g2_nor3_1
*I *2315:D I *D sg13g2_nor4_1
*I *2303:C I *D sg13g2_nor3_1
*I *2373:B I *D sg13g2_nor3_1
*I *2332:A I *D sg13g2_nor2_1
*I *2374:B I *D sg13g2_or3_1
*I *2614:C I *D sg13g2_nor3_1
*I *2302:Y O *D sg13g2_nand2b_1
*CAP
1 *2389:C 0.000520438
2 *2344:B 0
3 *2360:C 0
4 *2421:D 6.44917e-05
5 *2405:C 0
6 *2352:B 0
7 *2315:D 0
8 *2303:C 5.10268e-05
9 *2373:B 0
10 *2332:A 0.000148478
11 *2374:B 2.60565e-05
12 *2614:C 0.00032908
13 *2302:Y 8.85754e-05
14 *282:178 0.000567544
15 *282:171 0.000425691
16 *282:152 0.00122735
17 *282:137 0.001072
18 *282:122 0.00153287
19 *282:108 0.00227301
20 *282:99 3.38526e-05
21 *282:48 0.000414223
22 *282:46 0.0014466
23 *282:42 0.00148903
24 *282:34 0.000644291
25 *282:26 0.00131964
26 *282:20 0.00183648
27 *282:10 0.00195618
28 *282:8 8.85754e-05
29 *2332:A *2332:B 0
30 *2332:A *290:20 4.77425e-05
31 *2332:A *308:113 0
32 *2374:B *291:49 4.77425e-05
33 *2389:C *2585:A 7.30101e-05
34 *2389:C *313:12 0
35 *2389:C *315:8 0.000229924
36 *2389:C *318:26 0.000443118
37 *2389:C *319:33 0.000332997
38 *2389:C *345:88 0.000112568
39 *2614:C *289:65 0
40 *2614:C *308:14 0
41 *2614:C *308:113 0
42 *282:20 *291:16 0
43 *282:20 *306:12 0
44 *282:26 *284:42 0
45 *282:26 *306:12 0
46 *282:34 *289:40 1.54008e-05
47 *282:34 *305:105 7.9225e-05
48 *282:42 *289:38 0.000283605
49 *282:42 *289:40 4.77425e-05
50 *282:46 *290:20 0
51 *282:46 *291:49 8.02267e-05
52 *282:48 *308:113 0
53 *282:108 *317:27 0
54 *282:122 *283:178 0
55 *282:122 *284:131 0.00027444
56 *282:122 *284:139 0
57 *282:122 *295:62 0.000529941
58 *282:137 *295:54 0.000128293
59 *282:137 *295:62 1.54008e-05
60 *282:152 *326:10 8.03146e-05
61 *282:152 *329:8 0
62 *282:171 *295:30 0
63 *282:178 *318:26 0
64 output_o[26] *282:34 0
65 output_o[39] *282:122 1.51975e-05
66 output_o[45] *282:171 0
67 *2294:C *282:42 0
68 *2303:B *2303:C 8.00842e-05
69 *2348:A *282:122 0.00025698
70 *2352:A *282:122 0
71 *2369:A *282:42 0
72 *2373:A *282:42 0
73 *2378:A *2614:C 0.000181141
74 *2381:B *282:34 0.000232379
75 *2389:A *2389:C 0.000176551
76 *2389:B *2389:C 1.54285e-05
77 *2394:A_N *282:122 4.77425e-05
78 *2398:A_N *2389:C 0.000388216
79 *2405:B *282:137 0.000144025
80 *2406:B *2421:D 0
81 *2406:B *282:152 0.000241167
82 *2406:B *282:171 0
83 *2414:C *282:152 0
84 *3:22 *2374:B 4.77425e-05
85 *3:22 *282:46 4.77425e-05
86 *3:26 *2614:C 0.000159096
87 *3:26 *282:48 7.47759e-05
88 *3:63 *282:34 0
89 *3:227 *282:137 0.000144025
90 *3:227 *282:152 1.54008e-05
91 *3:240 *282:152 0
92 *3:248 *2421:D 0
93 *3:263 *282:171 7.91045e-05
94 *6:71 *282:122 0
95 *6:110 *282:8 2.14736e-05
96 *7:53 *282:108 0
97 *7:98 *282:99 7.3287e-05
98 *150:10 *282:171 0
99 *266:12 *282:152 0
100 *266:12 *282:171 0
101 *268:14 *2389:C 0
102 *268:14 *282:122 2.14736e-05
103 *268:14 *282:178 0.000105481
104 *268:52 *282:99 0
105 *268:127 *282:122 1.54008e-05
106 *268:134 *282:122 0.000321776
107 *269:113 *282:34 0.000240377
108 *270:48 *282:34 0.00023256
109 *270:52 *282:42 0
110 *270:158 *282:137 0.000230633
111 *275:36 *282:152 0
112 *275:104 *282:42 0
113 *276:20 *282:20 0.000675682
114 *276:20 *282:108 0.00166834
*RES
1 *2302:Y *282:8 40.5974 
2 *282:8 *282:10 20 
3 *282:10 *282:20 8.4938 
4 *282:20 *282:26 30.0322 
5 *282:26 *282:34 24.4496 
6 *282:34 *282:42 42.3999 
7 *282:42 *282:46 30.0528 
8 *282:46 *282:48 0.5974 
9 *282:48 *2614:C 43.6359 
10 *282:48 *2374:B 40.3193 
11 *282:46 *2332:A 41.1639 
12 *282:34 *2373:B 20 
13 *282:26 *2303:C 40.5356 
14 *282:20 *282:99 40.3502 
15 *282:99 *2315:D 20 
16 *282:10 *282:108 32.2158 
17 *282:108 *282:122 32.7926 
18 *282:122 *2352:B 20 
19 *282:122 *282:137 43.5226 
20 *282:137 *2405:C 20 
21 *282:137 *282:152 47.107 
22 *282:152 *2421:D 20.5356 
23 *282:152 *282:171 43.5947 
24 *282:171 *2360:C 20 
25 *282:108 *282:178 0.5974 
26 *282:178 *2344:B 40 
27 *282:178 *2389:C 46.7568 
*END

*D_NET *283 0.0390418
*CONN
*I *2394:C I *D sg13g2_nand3b_1
*I *2363:A I *D sg13g2_nand3_1
*I *2426:B I *D sg13g2_nand3b_1
*I *2410:C I *D sg13g2_nand3b_1
*I *2355:B I *D sg13g2_nand3_1
*I *2347:B I *D sg13g2_nand3_1
*I *2318:B I *D sg13g2_nand3_1
*I *2617:C I *D sg13g2_nand3_1
*I *2308:C I *D sg13g2_nand3_1
*I *2305:Y O *D sg13g2_nor2b_1
*CAP
1 *2394:C 0
2 *2363:A 0
3 *2426:B 0.000650532
4 *2410:C 5.34714e-05
5 *2355:B 0.000247323
6 *2347:B 2.21164e-05
7 *2318:B 0
8 *2617:C 0
9 *2308:C 0.000915835
10 *2305:Y 0.000196097
11 *283:178 0.000448794
12 *283:161 0.000283007
13 *283:129 0.000944917
14 *283:123 0.00120783
15 *283:110 0.0010451
16 *283:106 0.00148361
17 *283:91 0.00177392
18 *283:87 0.00196399
19 *283:69 0.00053982
20 *283:61 0.00122701
21 *283:38 0.00253156
22 *283:34 0.00125162
23 *283:26 0.000634547
24 *283:20 0.00132612
25 *283:10 0.00214778
26 *283:8 0.000196097
27 *2308:C *2579:A 0
28 *2308:C *345:104 0
29 *2308:C *345:119 0
30 *2347:B *294:74 3.15716e-05
31 *2355:B *328:40 0
32 *2426:B *287:54 0
33 *2426:B *313:19 0
34 *283:8 *287:8 2.16263e-05
35 *283:26 *2322:B 0.000177041
36 *283:26 *2331:A 0.000369675
37 *283:34 *2316:C 0.000144875
38 *283:34 *327:8 0
39 *283:38 *299:30 0.00176554
40 *283:61 *296:36 0.0008259
41 *283:61 *328:139 0.000176083
42 *283:61 *345:119 0
43 *283:69 *345:119 0.000534019
44 *283:87 *288:14 0.000388095
45 *283:87 *317:27 0
46 *283:91 *319:33 0
47 *283:106 *286:38 0
48 *283:106 *319:33 0
49 *283:106 *328:36 0
50 *283:110 *328:40 0
51 *283:123 *286:40 0.000598452
52 *283:123 *286:55 0.000112198
53 *283:123 *344:68 0.000435337
54 *283:161 *322:25 0
55 *283:161 *344:68 0.00019331
56 *283:178 *288:14 0.000473093
57 *283:178 *314:10 0.000124826
58 output_no[22] *283:69 0.000439608
59 output_no[30] *283:34 0.000387348
60 output_no[46] *283:161 0.000176083
61 output_o[23] *283:69 0
62 output_o[26] *2308:C 0
63 output_o[26] *283:61 0
64 output_o[30] *283:34 0
65 output_o[32] *283:20 0
66 output_o[38] *283:91 0.000906712
67 output_o[38] *283:106 0.000653892
68 output_o[43] *283:110 0
69 output_o[46] *283:161 0
70 *2381:B *2308:C 0
71 *2394:B *283:178 8.00842e-05
72 *2394:A_N *283:178 4.77425e-05
73 *2406:C *283:129 0.000486662
74 *2410:B *2410:C 1.54282e-05
75 *2426:A_N *2426:B 0
76 *3:63 *2308:C 0
77 *3:282 *2410:C 8.01116e-05
78 *3:282 *2426:B 0.000354811
79 *4:25 *283:8 0
80 *7:161 *283:8 0
81 *42:16 *283:61 0
82 *44:12 *283:161 0
83 *50:12 *283:69 0.000534047
84 *150:10 *283:129 0.000644868
85 *181:8 *283:69 0
86 *211:8 *283:34 7.33225e-05
87 *267:14 *283:20 0.000665048
88 *267:14 *283:87 0.00062696
89 *267:30 *283:69 0
90 *269:12 *283:87 0.0008934
91 *269:113 *2308:C 0
92 *275:16 *2426:B 9.36225e-05
93 *275:26 *2426:B 0.000209454
94 *275:36 *283:106 0
95 *275:48 *283:26 0
96 *275:56 *283:26 1.54285e-05
97 *275:56 *283:34 0.000144569
98 *275:85 *2308:C 0
99 *277:44 *2355:B 0
100 *277:75 *283:20 0
101 *277:105 *2308:C 4.77699e-05
102 *279:10 *283:20 0
103 *280:18 *283:38 0.00176554
104 *280:40 *283:106 0.000631274
105 *281:8 *283:8 0
106 *281:124 *283:106 0
107 *281:124 *283:123 0.00124492
108 *281:124 *283:161 4.75151e-05
109 *281:128 *283:129 0.000312816
110 *282:122 *283:178 0
*RES
1 *2305:Y *283:8 41.5862 
2 *283:8 *283:10 20 
3 *283:10 *283:20 49.3318 
4 *283:20 *283:26 3.3681 
5 *283:26 *283:34 43.296 
6 *283:34 *283:38 31.7832 
7 *283:38 *2308:C 47.004 
8 *283:38 *283:61 47.7662 
9 *283:61 *283:69 46.386 
10 *283:69 *2617:C 40 
11 *283:26 *2318:B 20 
12 *283:10 *283:87 12.9162 
13 *283:87 *283:91 24.3054 
14 *283:91 *2347:B 40.2112 
15 *283:91 *283:106 35.0689 
16 *283:106 *283:110 21.0918 
17 *283:110 *2355:B 41.8334 
18 *283:110 *283:123 28.3224 
19 *283:123 *283:129 43.811 
20 *283:129 *2410:C 20.5356 
21 *283:129 *2426:B 26.3088 
22 *283:123 *283:161 42.7398 
23 *283:161 *2363:A 20 
24 *283:87 *283:178 45.0161 
25 *283:178 *2394:C 20 
*END

*D_NET *284 0.0319756
*CONN
*I *2346:B I *D sg13g2_nor3_1
*I *2425:D I *D sg13g2_nor4_1
*I *2362:C I *D sg13g2_nor4_1
*I *2409:C I *D sg13g2_nor3_1
*I *2354:B I *D sg13g2_nor3_1
*I *2393:C I *D sg13g2_nor3_1
*I *2317:D I *D sg13g2_nor4_1
*I *2377:B I *D sg13g2_nor3_1
*I *2616:C I *D sg13g2_nor3_1
*I *2378:B I *D sg13g2_or3_1
*I *2335:A I *D sg13g2_nor2_1
*I *2307:C I *D sg13g2_nor3_1
*I *2306:Y O *D sg13g2_nand2b_1
*CAP
1 *2346:B 0
2 *2425:D 0.000478328
3 *2362:C 8.50992e-05
4 *2409:C 0.000368891
5 *2354:B 0
6 *2393:C 0
7 *2317:D 0
8 *2377:B 0
9 *2616:C 0
10 *2378:B 0
11 *2335:A 0.000224688
12 *2307:C 3.17557e-05
13 *2306:Y 2.74716e-05
14 *284:203 0.000256757
15 *284:171 0.00231016
16 *284:143 0.000611325
17 *284:139 0.00304634
18 *284:131 0.00162382
19 *284:124 0.000707002
20 *284:116 0.00187152
21 *284:104 0.00033267
22 *284:91 0.000125734
23 *284:71 0.000466406
24 *284:69 0.00142384
25 *284:55 0.00177266
26 *284:44 0.000415352
27 *284:42 0.00116815
28 *284:24 0.00131581
29 *284:20 0.00128327
30 *284:6 0.00201772
31 *2335:A *2335:B 0
32 *2335:A *308:10 0
33 *2362:C *295:18 0
34 *2362:C *295:24 4.75265e-05
35 *2409:C *321:8 0.000177652
36 *2409:C *323:8 0.000124699
37 *2425:D *295:10 3.23694e-05
38 *2425:D *295:18 0.000208709
39 *2425:D *331:10 0.00020964
40 *284:42 *290:36 0.000111286
41 *284:42 *309:10 0
42 *284:69 *289:40 0
43 *284:69 *289:48 0
44 *284:69 *289:54 0.000259011
45 *284:69 *305:10 0
46 *284:71 *289:54 0.000145105
47 *284:104 *2577:A 7.33256e-05
48 *284:104 *289:32 0.000112198
49 *284:104 *305:10 0.000231161
50 *284:104 *305:105 0.000334311
51 *284:139 *305:12 0
52 *284:143 *328:40 0
53 *284:171 *2364:A 0
54 *284:171 *285:30 0
55 *284:171 *328:44 0
56 *284:203 *295:72 8.00842e-05
57 *284:203 *319:33 0
58 output_o[21] *284:91 0
59 output_o[25] *284:104 0
60 output_o[26] *284:42 0.000127472
61 output_o[27] *284:42 0
62 output_o[29] *284:42 8.00842e-05
63 output_o[30] *284:24 4.73929e-05
64 output_o[37] *284:124 0
65 output_o[38] *284:203 0
66 output_o[47] *2425:D 8.01995e-05
67 *2294:B *284:69 8.01118e-05
68 *2294:C *284:69 0
69 *2294:A *284:69 6.38791e-05
70 *2302:B *284:20 0.00027444
71 *2303:B *2307:C 4.77425e-05
72 *2303:B *284:55 0
73 *2306:B *284:20 0.000209614
74 *2306:B *284:116 6.46834e-05
75 *2321:A *284:124 0
76 *2324:A *284:42 4.7562e-05
77 *2390:B *284:139 0
78 *2390:A_N *284:139 4.79124e-05
79 *2393:B *284:124 4.77425e-05
80 *3:39 *284:69 0
81 *3:39 *284:71 0
82 *3:54 *284:104 0
83 *3:63 *284:55 0
84 *3:112 *284:24 0
85 *3:233 *2409:C 0.00022762
86 *4:9 *284:20 0
87 *4:19 *284:20 0
88 *4:54 *284:20 0
89 *4:63 *284:20 0
90 *5:9 *284:116 0
91 *6:13 *2425:D 0
92 *6:19 *2425:D 0
93 *6:71 *284:139 0
94 *6:73 *284:116 0
95 *6:73 *284:131 0
96 *6:73 *284:139 0.000922306
97 *6:81 *284:116 0
98 *6:126 *284:20 0
99 *7:23 *284:171 0
100 *7:33 *284:171 0
101 *7:43 *284:139 0
102 *7:43 *284:171 0
103 *7:49 *284:139 1.54282e-05
104 *7:68 *284:116 0
105 *7:74 *284:20 9.70527e-05
106 *7:74 *284:116 0
107 *7:80 *284:20 0.00017744
108 *7:82 *284:20 0.000532866
109 *7:84 *284:24 0
110 *7:84 *284:42 0
111 *7:215 *2362:C 0.000143512
112 *7:215 *284:171 0.000392702
113 *44:12 *2425:D 0.00023193
114 *44:12 *284:171 2.14736e-05
115 *44:16 *284:171 0
116 *181:8 *284:91 0.000394688
117 *222:12 *284:203 0
118 *267:30 *284:69 1.53666e-05
119 *267:69 *284:124 0.000489793
120 *268:10 *284:116 3.15716e-05
121 *268:10 *284:131 0
122 *268:22 *284:124 0.000143351
123 *268:52 *284:42 0.000339583
124 *268:127 *284:131 0
125 *268:134 *284:203 0
126 *270:30 *284:20 0.000338984
127 *270:38 *284:42 1.54008e-05
128 *270:48 *284:42 0.00027467
129 *270:52 *284:55 0.000176018
130 *270:52 *284:69 0.00017659
131 *270:158 *284:143 0.0003904
132 *276:30 *284:42 0.000240068
133 *276:40 *284:42 0.000566253
134 *276:54 *284:55 0
135 *276:54 *284:69 0
136 *276:60 *2335:A 0
137 *276:88 *2335:A 0
138 *278:51 *284:124 0
139 *278:97 *2307:C 1.54008e-05
140 *278:97 *284:55 0
141 *279:10 *284:20 0
142 *279:28 *284:42 0
143 *279:34 *284:42 0
144 *282:26 *284:42 0
145 *282:122 *284:131 0.00027444
146 *282:122 *284:139 0
*RES
1 *2306:Y *284:6 20.3502 
2 *284:6 *284:20 31.6184 
3 *284:20 *284:24 21.4008 
4 *284:24 *284:42 32.5637 
5 *284:42 *284:44 20 
6 *284:44 *2307:C 20.3193 
7 *284:44 *284:55 3.9758 
8 *284:55 *284:69 49.9395 
9 *284:69 *284:71 2.266 
10 *284:71 *2335:A 22.1836 
11 *284:71 *2378:B 20 
12 *284:69 *284:91 41.8334 
13 *284:91 *2616:C 20 
14 *284:55 *284:104 43.3269 
15 *284:104 *2377:B 20 
16 *284:24 *2317:D 20 
17 *284:6 *284:116 7.2409 
18 *284:116 *284:124 45.9843 
19 *284:124 *2393:C 20 
20 *284:116 *284:131 2.9149 
21 *284:131 *284:139 10.8562 
22 *284:139 *284:143 22.575 
23 *284:143 *2354:B 40 
24 *284:143 *2409:C 43.811 
25 *284:139 *284:171 35.6869 
26 *284:171 *2362:C 40.9682 
27 *284:171 *2425:D 44.8925 
28 *284:131 *284:203 42.369 
29 *284:203 *2346:B 20 
*END

*D_NET *285 0.0259546
*CONN
*I *2318:C I *D sg13g2_nand3_1
*I *2316:C I *D sg13g2_nand3_1
*I *2312:B_N I *D sg13g2_nor2b_1
*I *2422:C I *D sg13g2_nand3b_1
*I *2426:C I *D sg13g2_nand3b_1
*I *2363:B I *D sg13g2_nand3_1
*I *2361:B I *D sg13g2_nand3_1
*I *2320:B I *D sg13g2_nand2_1
*I *2311:Y O *D sg13g2_nor2_1
*CAP
1 *2318:C 0
2 *2316:C 0.000312514
3 *2312:B_N 0
4 *2422:C 0
5 *2426:C 0
6 *2363:B 0
7 *2361:B 0
8 *2320:B 0
9 *2311:Y 0.000300618
10 *285:102 0.000606722
11 *285:91 0.000342456
12 *285:79 0.000232287
13 *285:73 0.000740788
14 *285:54 0.000731099
15 *285:45 0.000795654
16 *285:30 0.000419124
17 *285:22 0.00127438
18 *285:14 0.00305007
19 *285:12 0.00276787
20 *285:10 0.000348866
21 *2316:C *328:20 0
22 *285:10 *299:10 0
23 *285:10 *327:8 0.000231339
24 *285:14 *297:12 0.00119
25 *285:14 *307:10 0.00485959
26 *285:22 *310:57 0.000244504
27 *285:22 *315:12 0.000244504
28 *285:30 *2364:A 0.00011228
29 *285:45 *2590:A 0.000273854
30 *285:45 *294:38 1.54008e-05
31 *285:45 *294:42 0.000370879
32 *285:45 *310:57 0.000461405
33 *285:45 *315:12 0.000477068
34 *285:54 *294:38 0
35 *285:73 *287:52 0.00022762
36 *285:73 *294:26 6.48261e-05
37 *285:73 *294:34 8.00842e-05
38 *285:73 *313:19 0.000208899
39 *285:73 *329:47 0.000175913
40 *285:102 *290:44 0.000176083
41 *285:102 *345:174 0.000279156
42 output_o[30] *285:10 0
43 *2320:A *285:30 0.000593944
44 *2357:A *285:30 0.000231053
45 *2361:A *285:54 0.000112198
46 *2417:C *285:10 0
47 *2422:A_N *285:73 1.54008e-05
48 *2422:A_N *285:79 0.000279156
49 *3:112 *285:10 0
50 *3:129 *285:10 0
51 *6:144 *285:10 0.000286343
52 *7:43 *285:30 1.54008e-05
53 *161:12 *285:30 0.00112135
54 *172:10 *285:73 0.000279156
55 *204:12 *285:22 0.000179097
56 *266:12 *285:45 0.000280355
57 *268:92 *285:10 0
58 *269:12 *285:14 0
59 *269:41 *285:14 0
60 *275:56 *2316:C 4.75425e-05
61 *275:75 *2316:C 4.77699e-05
62 *277:44 *285:22 0.000125944
63 *281:33 *2316:C 0
64 *281:158 *285:54 0.000161338
65 *281:158 *285:73 0.000417791
66 *283:34 *2316:C 0.000144875
67 *284:171 *285:30 0
*RES
1 *2311:Y *285:10 43.3887 
2 *285:10 *285:12 20 
3 *285:12 *285:14 32.1154 
4 *285:14 *285:22 43.2033 
5 *285:22 *285:30 46.0461 
6 *285:30 *2320:B 20 
7 *285:22 *285:45 46.9525 
8 *285:45 *2361:B 20 
9 *285:45 *285:54 2.1836 
10 *285:54 *2363:B 20 
11 *285:54 *285:73 45.8916 
12 *285:73 *285:79 41.8334 
13 *285:79 *2426:C 20 
14 *285:73 *2422:C 20 
15 *285:10 *285:91 0.3502 
16 *285:91 *2312:B_N 40 
17 *285:91 *285:102 22.575 
18 *285:102 *2316:C 23.1724 
19 *285:102 *2318:C 20 
*END

*D_NET *286 0.0194945
*CONN
*I *2358:A I *D sg13g2_and2_1
*I *2359:A I *D sg13g2_nand2_1
*I *2314:B I *D sg13g2_nand2_1
*I *2313:B I *D sg13g2_and2_1
*I *2312:Y O *D sg13g2_nor2b_1
*CAP
1 *2358:A 0
2 *2359:A 0
3 *2314:B 3.25726e-05
4 *2313:B 0
5 *2312:Y 0.000444768
6 *286:55 0.000285234
7 *286:40 0.00113209
8 *286:38 0.00335149
9 *286:18 7.19102e-05
10 *286:12 0.000782805
11 *286:8 0.00362772
12 *2314:B *2589:A 0
13 *286:8 *290:44 0.000176083
14 *286:8 *299:10 0
15 *286:8 *345:174 0
16 *286:12 *2580:A 8.01995e-05
17 *286:12 *299:30 0
18 *286:12 *344:147 3.24568e-05
19 *286:12 *344:157 0.000499953
20 *286:18 *344:157 0
21 *286:38 *299:10 0
22 *286:38 *299:30 1.54008e-05
23 *286:38 *327:8 0
24 *286:38 *327:25 0.00351659
25 *286:38 *328:28 0.00357416
26 *286:38 *328:36 0.000112426
27 *286:40 *325:23 8.00491e-05
28 *286:40 *328:36 0
29 *286:40 *345:61 0
30 *286:40 *345:76 0
31 *286:55 *294:42 2.23751e-05
32 *286:55 *344:68 0.000178845
33 output_no[29] *286:12 0.0001773
34 output_no[30] *286:12 7.92265e-05
35 output_no[44] *286:55 0.000120753
36 output_o[31] *286:38 0
37 output_o[45] *286:55 0
38 *2314:A *286:18 0.000181246
39 *2316:A *286:12 4.77699e-05
40 *266:12 *286:55 0
41 *275:48 *286:12 8.01995e-05
42 *275:56 *286:12 8.01995e-05
43 *281:33 *286:12 0
44 *281:124 *286:40 0
45 *283:106 *286:38 0
46 *283:123 *286:40 0.000598452
47 *283:123 *286:55 0.000112198
*RES
1 *2312:Y *286:8 43.0694 
2 *286:8 *286:12 26.592 
3 *286:12 *286:18 40.8446 
4 *286:18 *2313:B 20 
5 *286:12 *2314:B 20.3502 
6 *286:8 *286:38 49.0769 
7 *286:38 *286:40 7.6735 
8 *286:40 *2359:A 20 
9 *286:40 *286:55 42.7346 
10 *286:55 *2358:A 20 
*END

*D_NET *287 0.0221712
*CONN
*I *2430:B I *D sg13g2_nand2b_1
*I *2429:B_N I *D sg13g2_nor2b_1
*I *2365:A I *D sg13g2_nand2_1
*I *2322:B I *D sg13g2_nand2_1
*I *2319:Y O *D sg13g2_nor4_1
*CAP
1 *2430:B 0
2 *2429:B_N 0
3 *2365:A 0
4 *2322:B 0.000689328
5 *2319:Y 0.000706249
6 *287:60 0.000201914
7 *287:54 0.00119022
8 *287:52 0.00118149
9 *287:39 0.000171277
10 *287:31 0.00326611
11 *287:29 0.00313505
12 *287:10 0.000922725
13 *287:8 0.000706249
14 *2322:B *2331:A 0
15 *2322:B *2331:B 0
16 *2322:B *299:56 0
17 *2322:B *344:141 0
18 *2322:B *344:147 0
19 *287:29 *299:56 0
20 *287:29 *344:141 0
21 *287:31 *298:12 0.000409976
22 *287:31 *314:25 0
23 *287:31 *316:25 0.00293287
24 *287:31 *320:37 0
25 *287:31 *326:21 0.0013592
26 *287:39 *294:34 0
27 *287:39 *329:47 0.000176252
28 *287:52 *316:25 0.000130737
29 *287:52 *326:21 0.000146301
30 *287:54 *313:19 0.00147022
31 output_no[33] *2322:B 0
32 output_no[41] *287:31 0.000113526
33 output_o[33] *2322:B 7.99721e-05
34 output_o[34] *287:29 0.000176083
35 output_o[47] *287:52 0.000330693
36 *2426:B *287:54 0
37 *2430:A_N *287:54 1.54008e-05
38 *3:336 *287:60 0.000124547
39 *4:35 *287:8 0
40 *22:12 *287:31 0
41 *44:12 *287:39 7.30101e-05
42 *45:10 *287:60 0
43 *116:8 *287:29 0.000144142
44 *116:12 *287:8 0
45 *173:12 *287:60 0
46 *269:8 *287:8 7.30101e-05
47 *269:95 *287:8 0.000385225
48 *275:16 *287:54 0.000175693
49 *275:40 *287:31 0
50 *275:46 *2322:B 0
51 *281:63 *287:31 0.00125744
52 *283:8 *287:8 2.16263e-05
53 *283:26 *2322:B 0.000177041
54 *285:73 *287:52 0.00022762
*RES
1 *2319:Y *287:8 45.5414 
2 *287:8 *287:10 20 
3 *287:10 *2322:B 26.4272 
4 *287:10 *287:29 42.4617 
5 *287:29 *287:31 32.9806 
6 *287:31 *287:39 41.5347 
7 *287:39 *2365:A 20 
8 *287:31 *287:52 42.5544 
9 *287:52 *287:54 9.8365 
10 *287:54 *287:60 41.5862 
11 *287:60 *2429:B_N 20 
12 *287:54 *2430:B 20 
*END

*D_NET *288 0.0121985
*CONN
*I *2364:A I *D sg13g2_nor2_1
*I *2321:B I *D sg13g2_nor2_1
*I *2320:Y O *D sg13g2_nand2_1
*CAP
1 *2364:A 0.00114286
2 *2321:B 0.000119507
3 *2320:Y 0
4 *288:14 0.00130249
5 *288:10 0.00132238
6 *288:4 0.00128226
7 *2321:B *2330:B 0.000207619
8 *2364:A *295:30 0
9 *288:14 *317:27 0.00249323
10 *288:14 *327:35 0.00140623
11 *2295:A *288:10 0.00010637
12 *2320:A *2364:A 7.99388e-05
13 *6:19 *2364:A 0
14 *6:29 *2364:A 0
15 *6:47 *2364:A 0
16 *6:57 *288:10 0.000181335
17 *7:21 *2364:A 0.000144361
18 *7:23 *2364:A 0.000786222
19 *7:33 *2364:A 0.000208681
20 *7:37 *2364:A 0
21 *7:43 *2364:A 0
22 *7:43 *288:10 0.000233967
23 *204:12 *288:10 0
24 *267:59 *2321:B 0.000143493
25 *267:83 *2321:B 6.41265e-05
26 *283:87 *288:14 0.000388095
27 *283:178 *288:14 0.000473093
28 *284:171 *2364:A 0
29 *285:30 *2364:A 0.00011228
*RES
1 *2320:Y *288:4 20 
2 *288:4 *288:10 41.8334 
3 *288:10 *288:14 35.8929 
4 *288:14 *2321:B 41.4008 
5 *288:4 *2364:A 31.6361 
*END

*D_NET *289 0.0113588
*CONN
*I *2377:C I *D sg13g2_nor3_1
*I *2373:C I *D sg13g2_nor3_1
*I *2382:C I *D sg13g2_or3_1
*I *2338:B I *D sg13g2_nor2_1
*I *2332:B I *D sg13g2_nor2_1
*I *2374:C I *D sg13g2_or3_1
*I *2335:B I *D sg13g2_nor2_1
*I *2378:C I *D sg13g2_or3_1
*I *2381:C I *D sg13g2_nor3_1
*I *2324:B I *D sg13g2_nor2_1
*I *2323:Y O *D sg13g2_nand2_1
*CAP
1 *2377:C 0
2 *2373:C 0
3 *2382:C 3.02124e-05
4 *2338:B 0
5 *2332:B 0.000323989
6 *2374:C 0
7 *2335:B 0.000221471
8 *2378:C 3.98173e-05
9 *2381:C 0
10 *2324:B 3.84536e-05
11 *2323:Y 0
12 *289:69 0.000243325
13 *289:65 0.000549873
14 *289:54 0.000675024
15 *289:48 0.000803692
16 *289:40 0.000756545
17 *289:38 0.000421871
18 *289:32 0.000264964
19 *289:23 0.0013033
20 *289:6 0.00114484
21 *2332:B *306:10 0
22 *2332:B *306:105 0
23 *2335:B *291:49 0.000273766
24 *2335:B *308:10 0
25 *289:23 *291:32 0
26 *289:23 *291:49 0
27 *289:32 *291:49 0.000272746
28 *289:48 *298:8 0
29 *289:65 *306:10 0
30 *289:69 *291:49 4.77425e-05
31 output_no[27] *289:23 7.92524e-05
32 *2294:C *289:40 0.00022644
33 *2294:C *289:48 1.54008e-05
34 *2324:A *2324:B 7.49633e-05
35 *2332:A *2332:B 0
36 *2335:A *2335:B 0
37 *2369:A *289:38 0.000157916
38 *2378:A *289:65 0.000179772
39 *2385:B *289:23 0.000103552
40 *2385:C *289:23 0
41 *2614:C *289:65 0
42 *3:26 *2332:B 0.000158743
43 *3:26 *289:65 7.48209e-05
44 *3:39 *2335:B 1.54008e-05
45 *3:39 *289:48 0
46 *3:39 *289:69 3.23417e-05
47 *3:41 *289:48 0
48 *3:54 *289:38 0.000124859
49 *3:71 *289:23 7.98582e-05
50 *181:8 *289:48 0
51 *268:52 *2324:B 0.000180763
52 *268:52 *289:23 0.00049453
53 *269:95 *289:23 0
54 *269:113 *289:23 0
55 *269:113 *289:40 0.000533539
56 *276:60 *2378:C 0
57 *276:60 *289:54 0
58 *279:49 *2324:B 0.000128742
59 *279:49 *289:23 0.00042319
60 *282:34 *289:40 1.54008e-05
61 *282:42 *289:38 0.000283605
62 *282:42 *289:40 4.77425e-05
63 *284:69 *289:40 0
64 *284:69 *289:48 0
65 *284:69 *289:54 0.000259011
66 *284:71 *289:54 0.000145105
67 *284:104 *289:32 0.000112198
*RES
1 *2323:Y *289:6 40 
2 *289:6 *2324:B 40.8446 
3 *289:6 *289:23 30.815 
4 *289:23 *2381:C 20 
5 *289:23 *289:32 2.1836 
6 *289:32 *289:38 41.339 
7 *289:38 *289:40 3.9964 
8 *289:40 *289:48 43.1106 
9 *289:48 *289:54 4.2333 
10 *289:54 *2378:C 20.3193 
11 *289:54 *289:65 21.8334 
12 *289:65 *289:69 20.3193 
13 *289:69 *2335:B 22.4308 
14 *289:69 *2374:C 20 
15 *289:65 *2332:B 42.6471 
16 *289:48 *2338:B 20 
17 *289:40 *2382:C 20.3502 
18 *289:38 *2373:C 20 
19 *289:32 *2377:C 20 
*END

*D_NET *290 0.0161554
*CONN
*I *2331:A I *D sg13g2_nand2_1
*I *2605:B I *D sg13g2_nand2_1
*I *2324:Y O *D sg13g2_nor2_1
*CAP
1 *2331:A 0.000421912
2 *2605:B 0
3 *2324:Y 0.000644945
4 *290:44 0.000997322
5 *290:36 0.00107206
6 *290:20 0.0026594
7 *290:16 0.00317673
8 *290:8 0.000665624
9 *2331:A *328:20 0.000240377
10 *2331:A *345:98 0.000176625
11 *290:16 *319:10 7.93692e-05
12 *290:20 *2572:A 7.45733e-05
13 *290:20 *2578:A 0
14 *290:20 *304:6 0
15 *290:20 *305:105 0
16 *290:20 *308:113 0.000955209
17 *290:20 *320:22 0.000272976
18 *290:20 *345:104 0.000692813
19 *290:36 *291:32 0
20 *290:36 *328:10 0.000541219
21 *290:44 *328:20 0
22 *290:44 *345:98 8.00842e-05
23 *290:44 *345:104 0.000694809
24 output_no[16] *290:20 7.41981e-06
25 output_no[27] *290:16 0.00033448
26 output_o[27] *290:16 0
27 *2322:B *2331:A 0
28 *2324:A *290:8 0.000129758
29 *2332:A *290:20 4.77425e-05
30 *2369:A *290:20 0
31 *3:13 *290:20 0
32 *3:22 *290:20 0
33 *3:63 *290:16 0.000306533
34 *3:71 *290:8 7.62389e-05
35 *3:78 *290:16 4.75166e-05
36 *3:88 *290:36 0.000442475
37 *268:52 *290:36 0
38 *269:95 *290:16 0
39 *278:84 *290:36 0
40 *279:34 *290:36 0.000111076
41 *279:49 *290:8 0.000372959
42 *281:33 *290:20 0
43 *281:47 *290:20 0
44 *282:46 *290:20 0
45 *283:26 *2331:A 0.000369675
46 *284:42 *290:36 0.000111286
47 *285:102 *290:44 0.000176083
48 *286:8 *290:44 0.000176083
*RES
1 *2324:Y *290:8 42.3278 
2 *290:8 *290:16 45.0882 
3 *290:16 *290:20 44.7226 
4 *290:20 *2605:B 20 
5 *2324:Y *290:36 45.5517 
6 *290:36 *290:44 45.9225 
7 *290:44 *2331:A 44.4805 
*END

*D_NET *291 0.0128378
*CONN
*I *2330:A I *D sg13g2_nor2_1
*I *2370:B I *D sg13g2_or2_1
*I *2604:B I *D sg13g2_nor2_1
*I *2369:B I *D sg13g2_nor2_1
*I *2325:Y O *D sg13g2_nand4_1
*CAP
1 *2330:A 0
2 *2370:B 8.57758e-05
3 *2604:B 6.2792e-05
4 *2369:B 2.72461e-05
5 *2325:Y 0.000144762
6 *291:49 0.00249433
7 *291:32 0.00327498
8 *291:16 0.00166258
9 *291:8 0.000905366
10 *291:32 *320:10 0.000111114
11 *291:32 *345:104 0.000596052
12 *291:49 *297:47 0
13 output_o[29] *291:32 0
14 *2325:A *291:8 0
15 *2335:B *291:49 0.000273766
16 *2369:A *291:32 1.54556e-05
17 *2369:A *291:49 0.000822667
18 *2370:A *2370:B 0
19 *2374:B *291:49 4.77425e-05
20 *2382:A *291:49 0.000112656
21 *2385:C *291:32 8.02269e-05
22 *3:13 *2370:B 0
23 *3:13 *291:49 0
24 *3:22 *291:49 0
25 *3:39 *291:49 0
26 *3:41 *291:49 0
27 *3:88 *291:32 0.00048882
28 *4:29 *291:8 0
29 *6:118 *291:16 0
30 *7:98 *291:32 7.30101e-05
31 *191:12 *291:16 0
32 *191:20 *291:16 0
33 *267:14 *291:16 0.000826599
34 *268:92 *291:16 0
35 *269:95 *291:32 0
36 *276:88 *2370:B 0
37 *276:88 *291:49 0
38 *278:61 *291:32 0.000103073
39 *278:67 *291:32 0.000228094
40 *282:20 *291:16 0
41 *282:46 *291:49 8.02267e-05
42 *289:23 *291:32 0
43 *289:23 *291:49 0
44 *289:32 *291:49 0.000272746
45 *289:69 *291:49 4.77425e-05
46 *290:36 *291:32 0
*RES
1 *2325:Y *291:8 21.6274 
2 *291:8 *291:16 48.4254 
3 *291:16 *291:32 49.7026 
4 *291:32 *2369:B 20.3502 
5 *291:32 *291:49 22.2068 
6 *291:49 *2604:B 20.8446 
7 *291:49 *2370:B 20.8858 
8 *291:8 *2330:A 20 
*END

*D_NET *292 0.00466513
*CONN
*I *2329:B I *D sg13g2_nand2_1
*I *2503:B I *D sg13g2_nand2b_1
*I *2326:Y O *D sg13g2_nor2b_1
*CAP
1 *2329:B 0.000618167
2 *2503:B 0
3 *2326:Y 0.00111431
4 *292:10 0.00049614
5 *2329:B *309:43 0
6 *2329:B *313:50 0.00108346
7 *2329:B *320:63 0.000435493
8 *292:10 *309:43 0
9 *292:10 *327:41 0.000384132
10 *292:10 *339:8 0
11 *292:10 *341:14 0
12 *2329:A *2329:B 0
13 *9:22 *292:10 0.000533424
14 *271:37 *292:10 0
*RES
1 *2326:Y *292:10 45.3972 
2 *292:10 *2503:B 40 
3 *2326:Y *2329:B 47.2409 
*END

*D_NET *293 0.0402955
*CONN
*I *2328:B I *D sg13g2_nor2_1
*I *2502:B I *D sg13g2_nor2_1
*I *2327:Y O *D sg13g2_nand2b_1
*CAP
1 *2328:B 0.00025548
2 *2502:B 0
3 *2327:Y 0.000113934
4 *293:51 0.000552987
5 *293:43 0.000605008
6 *293:32 0.00012269
7 *293:26 0.00882529
8 *293:24 0.00893681
9 *293:12 0.000655652
10 *293:12 *329:47 0
11 *293:24 *328:48 0
12 *293:26 *304:30 0
13 *293:26 *304:38 0
14 *293:26 *305:28 0
15 *293:26 *305:32 0.00591808
16 *293:26 *307:25 0.00240958
17 *293:26 *311:18 0.00348959
18 *293:26 *311:31 0.00584908
19 *293:32 *2504:A 0.000433921
20 *293:32 *341:20 0.000433921
21 *293:43 *306:20 0.000477901
22 *293:51 *321:26 0
23 *293:51 *344:12 8.01846e-05
24 output_no[57] *293:51 0
25 *2328:A *2328:B 0.000273218
26 *3:345 *2328:B 0
27 *8:101 *293:12 0.000124547
28 *8:101 *293:24 0.000111252
29 *9:26 *293:24 7.30101e-05
30 *9:30 *293:24 3.71985e-05
31 *9:45 *293:12 0.000104489
32 *9:45 *293:24 7.30101e-05
33 *10:122 *293:12 8.00842e-05
34 *10:128 *2328:B 0
35 *10:128 *293:51 0
36 *271:12 *293:24 0.000178518
37 *272:22 *2328:B 0
38 *272:22 *293:51 0
39 *274:10 *2328:B 8.01116e-05
40 *274:10 *293:51 0
*RES
1 *2327:Y *293:12 41.4832 
2 *293:12 *293:24 22.678 
3 *293:24 *293:26 94.8424 
4 *293:26 *293:32 42.0806 
5 *293:32 *2502:B 20 
6 *293:12 *293:43 43.1312 
7 *293:43 *293:51 42.6162 
8 *293:51 *2328:B 42.6986 
*END

*D_NET *294 0.0327929
*CONN
*I *2365:B I *D sg13g2_nand2_1
*I *2363:C I *D sg13g2_nand3_1
*I *2361:C I *D sg13g2_nand3_1
*I *2358:B I *D sg13g2_and2_1
*I *2359:B I *D sg13g2_nand2_1
*I *2357:C I *D sg13g2_nand3_1
*I *2355:C I *D sg13g2_nand3_1
*I *2353:C I *D sg13g2_nand3_1
*I *2350:B I *D sg13g2_and2_1
*I *2349:C I *D sg13g2_nand3_1
*I *2351:B I *D sg13g2_nand2_1
*I *2347:C I *D sg13g2_nand3_1
*I *2345:C I *D sg13g2_nand3_1
*I *2343:A I *D sg13g2_nand2_1
*I *2342:A I *D sg13g2_and2_1
*I *2340:A I *D sg13g2_nand2_1
*I *2337:A I *D sg13g2_nand2_1
*I *2336:A I *D sg13g2_and2_1
*I *2334:A I *D sg13g2_nand2_1
*I *2333:A I *D sg13g2_and2_1
*I *2331:B I *D sg13g2_nand2_1
*I *2339:A I *D sg13g2_and2_1
*I *2328:Y O *D sg13g2_nor2_1
*CAP
1 *2365:B 0
2 *2363:C 0
3 *2361:C 0
4 *2358:B 4.57231e-05
5 *2359:B 0
6 *2357:C 0
7 *2355:C 0
8 *2353:C 0
9 *2350:B 0
10 *2349:C 0
11 *2351:B 0
12 *2347:C 0
13 *2345:C 0
14 *2343:A 0.000284766
15 *2342:A 0
16 *2340:A 0.000202252
17 *2337:A 0
18 *2336:A 0
19 *2334:A 0
20 *2333:A 0
21 *2331:B 0.000145858
22 *2339:A 0.000201647
23 *2328:Y 0.000485717
24 *294:247 0.000175124
25 *294:234 0.000232872
26 *294:204 0.000268524
27 *294:144 0.000525711
28 *294:131 0.000208811
29 *294:111 0.000222771
30 *294:109 0.000737817
31 *294:107 0.00122254
32 *294:103 0.000530487
33 *294:92 0.000381924
34 *294:88 0.000340132
35 *294:82 0.000837109
36 *294:74 0.000521987
37 *294:72 0.000656023
38 *294:62 0.00046783
39 *294:60 0.000423321
40 *294:58 0.000409024
41 *294:54 0.000736671
42 *294:48 0.000674855
43 *294:46 0.000660689
44 *294:44 0.000440413
45 *294:42 0.00044842
46 *294:38 0.000572286
47 *294:34 0.000612324
48 *294:26 0.000732619
49 *294:18 0.00224225
50 *294:10 0.0023834
51 *2331:B *344:141 0
52 *2331:B *345:98 0
53 *2343:A *328:28 0
54 *2343:A *344:133 0
55 *2358:B *345:61 3.15716e-05
56 *294:10 *2400:B 0.000232037
57 *294:10 *319:45 0
58 *294:10 *329:47 0
59 *294:18 *322:25 0
60 *294:18 *322:37 0.00115004
61 *294:18 *331:39 0.00113242
62 *294:18 *332:25 0.00124673
63 *294:18 *334:33 0.0016661
64 *294:26 *331:10 0
65 *294:26 *332:23 0
66 *294:34 *313:19 0
67 *294:34 *329:47 0.000112684
68 *294:38 *329:47 0.000257993
69 *294:42 *329:47 0.000565092
70 *294:42 *345:61 0
71 *294:46 *344:76 0
72 *294:46 *345:61 0
73 *294:48 *344:76 0
74 *294:54 *2593:B 6.47987e-05
75 *294:54 *344:76 0
76 *294:54 *344:90 4.75166e-05
77 *294:58 *344:90 0
78 *294:58 *345:76 0
79 *294:60 *345:76 0
80 *294:72 *2582:A 0.000208265
81 *294:72 *2584:A 0
82 *294:72 *313:19 0
83 *294:72 *344:117 0
84 *294:72 *345:76 0
85 *294:72 *345:88 0.000262785
86 *294:74 *345:88 0.000322396
87 *294:82 *344:125 6.44472e-05
88 *294:82 *344:133 0.000144772
89 *294:82 *345:88 0.000208134
90 *294:82 *345:98 0
91 *294:88 *344:133 0
92 *294:88 *345:98 0.000259329
93 *294:92 *344:133 0
94 *294:92 *345:98 0.000143571
95 *294:107 *344:133 0.000403779
96 *294:107 *345:98 0
97 *294:109 *2337:B 0
98 *294:109 *344:133 1.54008e-05
99 *294:109 *344:141 0
100 *294:109 *345:98 0
101 *294:111 *344:141 0
102 *294:111 *345:98 0
103 *294:131 *2333:B 0.000227775
104 *294:131 *299:56 4.77699e-05
105 *294:131 *344:141 0
106 *294:204 *327:31 0.000592221
107 *294:234 *313:19 8.00842e-05
108 *294:234 *326:10 0.000332997
109 *294:247 *344:68 7.30101e-05
110 output_no[34] *294:144 7.30101e-05
111 output_no[35] *2340:A 7.31628e-05
112 output_no[36] *2343:A 0.000152578
113 output_no[40] *294:60 0.000208968
114 output_no[40] *294:62 1.54008e-05
115 output_no[42] *294:54 0
116 output_no[43] *294:247 0
117 output_no[47] *294:26 0.000645919
118 output_o[33] *294:131 0
119 output_o[36] *294:88 0
120 output_o[37] *2343:A 0
121 output_o[44] *294:247 0.000126172
122 *2322:B *2331:B 0
123 *2345:B *294:74 1.54556e-05
124 *2345:B *294:82 4.79124e-05
125 *2347:B *294:74 3.15716e-05
126 *2347:A *294:74 0
127 *2350:A *294:60 0.00016111
128 *2350:A *294:62 3.23417e-05
129 *2350:A *294:72 1.54008e-05
130 *2350:A *294:204 7.32897e-05
131 *2353:B *294:54 0.000112314
132 *2353:B *294:58 1.54008e-05
133 *2397:C *294:144 0.000176551
134 *2410:B *294:234 4.77425e-05
135 *3:144 *294:144 0.000209614
136 *3:220 *294:204 4.77425e-05
137 *3:345 *294:10 0
138 *116:12 *294:144 0
139 *138:8 *294:54 0.000161083
140 *138:8 *294:58 0.000241052
141 *161:8 *294:46 0
142 *161:12 *294:247 0
143 *244:8 *294:88 0.000125944
144 *267:69 *294:82 0
145 *268:32 *294:144 0
146 *269:33 *294:204 1.54008e-05
147 *269:39 *294:204 7.30101e-05
148 *277:34 *294:234 4.77425e-05
149 *277:44 *294:48 0
150 *277:44 *294:54 0
151 *277:44 *294:234 1.54008e-05
152 *277:61 *294:54 0
153 *281:8 *294:131 0.000124547
154 *281:107 *294:58 0
155 *281:158 *294:26 0.000227935
156 *285:45 *294:38 1.54008e-05
157 *285:45 *294:42 0.000370879
158 *285:54 *294:38 0
159 *285:73 *294:26 6.48261e-05
160 *285:73 *294:34 8.00842e-05
161 *286:55 *294:42 2.23751e-05
162 *287:39 *294:34 0
*RES
1 *2328:Y *294:10 44.0376 
2 *294:10 *294:18 41.9699 
3 *294:18 *294:26 43.8522 
4 *294:26 *294:34 43.1106 
5 *294:34 *294:38 2.1836 
6 *294:38 *294:42 4.1303 
7 *294:42 *294:44 0.5356 
8 *294:44 *294:46 1.8334 
9 *294:46 *294:48 1.7681 
10 *294:48 *294:54 4.4496 
11 *294:54 *294:58 2.8634 
12 *294:58 *294:60 1.6171 
13 *294:60 *294:62 0.3193 
14 *294:62 *294:72 4.9028 
15 *294:72 *294:74 2.266 
16 *294:74 *294:82 23.1518 
17 *294:82 *294:88 22.678 
18 *294:88 *294:92 20.9682 
19 *294:92 *2339:A 41.339 
20 *294:92 *294:103 0.5974 
21 *294:103 *294:107 22.6986 
22 *294:107 *294:109 3.7801 
23 *294:109 *294:111 0.7519 
24 *294:111 *2331:B 21.4008 
25 *294:111 *2333:A 20 
26 *294:109 *294:131 42.1527 
27 *294:131 *2334:A 20 
28 *294:107 *294:144 44.223 
29 *294:144 *2336:A 20 
30 *294:107 *2337:A 20 
31 *294:103 *2340:A 41.6274 
32 *294:88 *2342:A 20 
33 *294:82 *2343:A 42.4926 
34 *294:74 *2345:C 20 
35 *294:72 *2347:C 20 
36 *294:62 *2351:B 20 
37 *294:60 *294:204 43.1415 
38 *294:204 *2349:C 20 
39 *294:58 *2350:B 20 
40 *294:54 *2353:C 20 
41 *294:48 *2355:C 20 
42 *294:46 *294:234 42.4411 
43 *294:234 *2357:C 20 
44 *294:44 *294:247 41.6583 
45 *294:247 *2359:B 20 
46 *294:42 *2358:B 20.5613 
47 *294:38 *2361:C 20 
48 *294:34 *2363:C 20 
49 *294:26 *2365:B 20 
*END

*D_NET *295 0.0198576
*CONN
*I *2364:B I *D sg13g2_nor2_1
*I *2362:D I *D sg13g2_nor4_1
*I *2360:D I *D sg13g2_nor4_1
*I *2352:C I *D sg13g2_nor3_1
*I *2348:C I *D sg13g2_nor3_1
*I *2346:C I *D sg13g2_nor3_1
*I *2344:C I *D sg13g2_nor3_1
*I *2330:B I *D sg13g2_nor2_1
*I *2354:C I *D sg13g2_nor3_1
*I *2356:C I *D sg13g2_nor3_1
*I *2329:Y O *D sg13g2_nand2_1
*CAP
1 *2364:B 0
2 *2362:D 0
3 *2360:D 0
4 *2352:C 0
5 *2348:C 0
6 *2346:C 0
7 *2344:C 0
8 *2330:B 0.00144686
9 *2354:C 0
10 *2356:C 0
11 *2329:Y 0.00236133
12 *295:129 0.000112729
13 *295:72 0.00175665
14 *295:66 0.000523287
15 *295:62 0.000894578
16 *295:54 0.000845224
17 *295:42 0.000189615
18 *295:32 0.000220256
19 *295:30 0.00119143
20 *295:24 0.00149749
21 *295:18 0.00080851
22 *295:10 0.00278171
23 *295:10 *309:20 0
24 *295:10 *309:43 0
25 *295:10 *313:50 0
26 *295:10 *320:51 0
27 *295:10 *331:10 0.000208824
28 *295:62 *316:10 4.75166e-05
29 *295:129 *331:10 0
30 output_o[39] *295:62 0
31 output_o[42] *295:30 7.97113e-05
32 output_o[45] *295:24 4.73929e-05
33 output_o[46] *295:18 0
34 output_o[46] *295:24 0.000144294
35 output_o[47] *295:129 0.000141786
36 *2321:A *2330:B 4.77083e-05
37 *2321:B *2330:B 0.000207619
38 *2325:B *2330:B 0
39 *2348:A *295:66 0
40 *2354:A *295:30 0
41 *2354:A *295:42 1.54008e-05
42 *2362:C *295:18 0
43 *2362:C *295:24 4.75265e-05
44 *2364:A *295:30 0
45 *2394:B *295:62 8.00842e-05
46 *2398:A_N *2330:B 0
47 *2398:A_N *295:72 0
48 *2405:B *295:54 0
49 *2425:D *295:10 3.23694e-05
50 *2425:D *295:18 0.000208709
51 *3:240 *295:30 0
52 *3:248 *295:30 0.000262501
53 *3:263 *295:24 0
54 *3:263 *295:30 9.03201e-05
55 *3:274 *295:18 0.000112357
56 *3:274 *295:24 0
57 *3:289 *295:10 0.000208255
58 *3:289 *295:18 0.000193609
59 *3:293 *295:10 9.72278e-05
60 *3:323 *295:10 0
61 *3:336 *295:10 0
62 *5:94 *2330:B 0.00030526
63 *6:13 *295:10 0
64 *6:19 *295:129 4.75265e-05
65 *6:29 *295:24 0
66 *6:29 *295:30 0
67 *6:94 *2330:B 0.000529574
68 *6:110 *2330:B 0
69 *7:33 *295:30 0
70 *7:37 *295:30 0
71 *7:43 *295:30 0
72 *7:68 *2330:B 0
73 *150:10 *295:18 0
74 *171:10 *295:129 0
75 *172:10 *295:129 0
76 *191:12 *2330:B 0.000433342
77 *204:12 *295:30 0
78 *267:59 *2330:B 0.000529242
79 *267:104 *295:62 6.97862e-05
80 *267:104 *295:66 0
81 *267:104 *295:72 0
82 *268:10 *2330:B 0
83 *268:134 *295:72 0
84 *270:158 *295:42 0.000286275
85 *275:16 *295:10 0
86 *277:75 *295:62 0
87 *278:10 *295:42 0
88 *278:32 *295:42 0
89 *278:43 *295:42 0
90 *282:122 *295:62 0.000529941
91 *282:137 *295:54 0.000128293
92 *282:137 *295:62 1.54008e-05
93 *282:171 *295:30 0
94 *284:203 *295:72 8.00842e-05
*RES
1 *2329:Y *295:10 37.473 
2 *295:10 *295:18 43.1415 
3 *295:18 *295:24 4.6968 
4 *295:24 *295:30 9.0228 
5 *295:30 *295:32 0.3502 
6 *295:32 *295:42 42.4102 
7 *295:42 *2356:C 20 
8 *295:32 *2354:C 20 
9 *295:30 *295:54 1.8334 
10 *295:54 *295:62 6.94478 
11 *295:62 *295:66 1.95442 
12 *295:66 *295:72 3.2136 
13 *295:72 *2330:B 35.3676 
14 *295:72 *2344:C 20 
15 *295:66 *2346:C 20 
16 *295:62 *2348:C 20 
17 *295:54 *2352:C 20 
18 *295:24 *2360:D 20 
19 *295:18 *2362:D 20 
20 *295:10 *295:129 41.1639 
21 *295:129 *2364:B 20 
*END

*D_NET *296 0.016769
*CONN
*I *2334:B I *D sg13g2_nand2_1
*I *2333:B I *D sg13g2_and2_1
*I *2607:B I *D sg13g2_nand2_1
*I *2606:B I *D sg13g2_and2_1
*I *2332:Y O *D sg13g2_nor2_1
*CAP
1 *2334:B 0
2 *2333:B 0.000115985
3 *2607:B 0
4 *2606:B 8.77758e-05
5 *2332:Y 0.000217309
6 *296:46 0.00142325
7 *296:42 0.00156693
8 *296:36 0.00204228
9 *296:18 8.77758e-05
10 *296:16 0.000714144
11 *296:8 0.00271406
12 *2606:B *2609:B 0
13 *2606:B *306:105 0
14 *296:8 *306:105 0
15 *296:16 *306:105 0.00111543
16 *296:36 *328:145 0.00114978
17 *296:36 *345:119 0.00192698
18 *296:42 *319:27 0
19 *296:46 *298:12 0
20 output_no[17] *296:16 0
21 output_no[27] *296:42 0
22 output_o[17] *296:16 0
23 output_o[18] *296:16 0
24 *2607:A *296:16 0.000338197
25 *22:12 *296:46 0
26 *42:16 *296:36 0.000436764
27 *83:8 *296:42 0
28 *211:16 *296:46 0
29 *275:40 *296:46 0.000574167
30 *275:137 *296:8 7.48842e-05
31 *275:182 *296:8 0.00033916
32 *275:182 *296:16 0.000176484
33 *275:184 *296:16 0.000339556
34 *275:186 *296:16 0.000274467
35 *280:18 *296:36 0
36 *281:16 *296:46 0
37 *283:61 *296:36 0.0008259
38 *294:131 *2333:B 0.000227775
*RES
1 *2332:Y *296:8 42.575 
2 *296:8 *296:16 48.3018 
3 *296:16 *296:18 20 
4 *296:18 *2606:B 21.0918 
5 *296:18 *2607:B 20 
6 *296:8 *296:36 39.8275 
7 *296:36 *296:42 42.3278 
8 *296:42 *296:46 33.2973 
9 *296:46 *2333:B 41.0918 
10 *296:46 *2334:B 40 
*END

*D_NET *297 0.0134443
*CONN
*I *2609:B I *D sg13g2_nand2_1
*I *2608:B I *D sg13g2_and2_1
*I *2337:B I *D sg13g2_nand2_1
*I *2336:B I *D sg13g2_and2_1
*I *2335:Y O *D sg13g2_nor2_1
*CAP
1 *2609:B 8.77758e-05
2 *2608:B 0
3 *2337:B 0.000405315
4 *2336:B 0
5 *2335:Y 0.000612224
6 *297:51 0.000214519
7 *297:47 0.000713242
8 *297:16 0.000439459
9 *297:12 0.00299502
10 *297:10 0.00296087
11 *297:8 2.57253e-05
12 *2337:B *345:98 0.000274182
13 *2609:B *2610:B 0
14 *2609:B *2611:B 0
15 *297:8 *308:14 7.49317e-05
16 *297:12 *307:10 0
17 *2606:B *2609:B 0
18 *2607:A *297:51 0
19 *11:12 *297:12 0
20 *116:12 *2337:B 0.000436223
21 *116:12 *297:16 7.40536e-05
22 *267:14 *297:12 0
23 *268:42 *297:12 0.000802481
24 *275:91 *297:12 0.000899426
25 *275:139 *297:51 1.54282e-05
26 *275:141 *297:51 0.000144958
27 *275:143 *297:51 8.03692e-05
28 *275:186 *297:51 0
29 *275:237 *297:12 0.000328299
30 *276:88 *297:47 0
31 *277:89 *297:12 0.000669827
32 *285:14 *297:12 0.00119
33 *291:49 *297:47 0
34 *294:109 *2337:B 0
*RES
1 *2335:Y *297:8 40.3502 
2 *297:8 *297:10 20 
3 *297:10 *297:12 34.711 
4 *297:12 *297:16 20.3502 
5 *297:16 *2336:B 40 
6 *297:16 *2337:B 43.914 
7 *2335:Y *297:47 45.4693 
8 *297:47 *297:51 21.4008 
9 *297:51 *2608:B 20 
10 *297:51 *2609:B 21.0918 
*END

*D_NET *298 0.0153709
*CONN
*I *2611:B I *D sg13g2_nand2_1
*I *2610:B I *D sg13g2_and2_1
*I *2340:B I *D sg13g2_nand2_1
*I *2339:B I *D sg13g2_and2_1
*I *2338:Y O *D sg13g2_nor2_1
*CAP
1 *2611:B 2.36489e-05
2 *2610:B 7.01654e-05
3 *2340:B 8.49716e-05
4 *2339:B 0.000209149
5 *2338:Y 0.000466398
6 *298:46 0.00107457
7 *298:14 0.000294121
8 *298:12 0.00313786
9 *298:10 0.00313786
10 *298:8 0.00144716
11 *2340:B *344:133 4.77425e-05
12 *298:12 *310:51 0
13 *298:12 *320:37 0.00253815
14 *298:12 *328:133 0
15 *298:46 *2613:B 8.00842e-05
16 *298:46 *299:30 6.44996e-05
17 *298:46 *299:45 0
18 output_no[21] *298:46 8.00444e-05
19 output_o[35] *2339:B 0.000228663
20 output_o[35] *2340:B 0.000124547
21 *2397:C *2339:B 0
22 *2609:B *2610:B 0
23 *2609:B *2611:B 0
24 *2615:A *298:46 0
25 *22:12 *298:12 0
26 *61:22 *298:46 0
27 *181:8 *298:8 0
28 *244:12 *298:12 0
29 *267:30 *298:8 0
30 *267:30 *298:46 0.000112541
31 *275:83 *298:12 0.000868312
32 *275:123 *298:46 0.000112541
33 *275:125 *298:46 0.00027444
34 *275:129 *298:46 0.000435682
35 *275:137 *298:46 0
36 *275:139 *298:46 0
37 *275:184 *298:46 0
38 *275:186 *298:46 0
39 *278:55 *2339:B 4.77702e-05
40 *281:16 *298:12 0
41 *281:63 *298:12 0
42 *287:31 *298:12 0.000409976
43 *289:48 *298:8 0
44 *296:46 *298:12 0
*RES
1 *2338:Y *298:8 43.811 
2 *298:8 *298:10 20 
3 *298:10 *298:12 32.548 
4 *298:12 *298:14 20 
5 *298:14 *2339:B 41.9055 
6 *298:14 *2340:B 40.9167 
7 *298:8 *298:46 30.0837 
8 *298:46 *2610:B 20.8446 
9 *298:46 *2611:B 20.3502 
*END

*D_NET *299 0.0179347
*CONN
*I *2343:B I *D sg13g2_nand2_1
*I *2342:B I *D sg13g2_and2_1
*I *2612:B I *D sg13g2_and2_1
*I *2613:B I *D sg13g2_nand2_1
*I *2341:Y O *D sg13g2_nor2_1
*CAP
1 *2343:B 0
2 *2342:B 0
3 *2612:B 0
4 *2613:B 5.61002e-05
5 *2341:Y 0.000640765
6 *299:62 0.000157366
7 *299:56 0.00145673
8 *299:45 0.000173901
9 *299:30 0.00312606
10 *299:12 0.00419542
11 *299:10 0.000640765
12 *299:30 *2577:A 0
13 *299:30 *2577:B 0
14 *299:30 *2589:A 0
15 *299:30 *2597:A 0.000273064
16 *299:30 *306:105 0
17 *299:30 *327:25 8.02269e-05
18 *299:30 *344:147 7.9225e-05
19 *299:30 *344:157 0
20 *299:30 *344:165 0
21 *299:30 *344:173 0
22 *299:30 *345:174 1.54285e-05
23 *299:56 *317:14 0
24 *299:56 *328:28 0.00166617
25 *299:56 *344:133 0.000112648
26 *299:56 *344:147 0.000646718
27 output_no[24] *299:30 0
28 output_no[33] *299:56 0
29 output_o[20] *299:45 0
30 output_o[31] *299:10 0.0010608
31 *2322:B *299:56 0
32 *3:129 *299:10 0.000176396
33 *50:12 *299:30 0.000565317
34 *61:14 *299:30 0
35 *61:22 *299:30 0.000663053
36 *127:12 *299:30 0
37 *275:137 *299:45 1.54556e-05
38 *275:139 *299:45 8.03692e-05
39 *275:182 *299:30 0
40 *275:182 *299:45 0
41 *279:18 *299:10 7.94189e-05
42 *280:18 *299:30 0
43 *281:33 *299:30 0
44 *281:47 *299:30 0
45 *283:38 *299:30 0.00176554
46 *285:10 *299:10 0
47 *286:8 *299:10 0
48 *286:12 *299:30 0
49 *286:38 *299:10 0
50 *286:38 *299:30 1.54008e-05
51 *287:29 *299:56 0
52 *294:131 *299:56 4.77699e-05
53 *298:46 *2613:B 8.00842e-05
54 *298:46 *299:30 6.44996e-05
55 *298:46 *299:45 0
*RES
1 *2341:Y *299:10 46.3242 
2 *299:10 *299:12 20 
3 *299:12 *299:30 30.0966 
4 *299:30 *2613:B 20.5356 
5 *299:30 *299:45 41.6274 
6 *299:45 *2612:B 20 
7 *299:12 *299:56 14.0904 
8 *299:56 *299:62 41.0918 
9 *299:62 *2342:B 20 
10 *299:56 *2343:B 20 
*END

*D_NET *300 0.0392204
*CONN
*I *2368:B I *D sg13g2_nand2_1
*I *2367:B I *D sg13g2_and2_1
*I *2537:B I *D sg13g2_nand2b_1
*I *2366:Y O *D sg13g2_nor2_1
*CAP
1 *2368:B 0
2 *2367:B 0
3 *2537:B 0
4 *2366:Y 6.83005e-05
5 *300:39 0.000108047
6 *300:33 0.000312175
7 *300:20 0.000193317
8 *300:14 0.00911884
9 *300:12 0.00908303
10 *300:8 0.000429931
11 *300:14 *315:38 0.00244537
12 *300:14 *315:44 0.00552524
13 *300:14 *324:59 0.00413152
14 *300:14 *330:37 0
15 *300:14 *339:12 0.00633287
16 *300:20 *2512:A 0.000384045
17 *300:20 *330:51 0
18 *300:33 *313:60 0.000279052
19 *300:39 *302:14 0
20 *300:39 *302:27 0
21 *8:29 *300:12 0
22 *9:11 *300:14 0
23 *9:20 *300:14 0.000663853
24 *10:87 *300:33 0.000144842
25 *10:89 *300:33 0
26 *10:106 *300:12 0
27 *10:106 *300:39 0
*RES
1 *2366:Y *300:8 40.5974 
2 *300:8 *300:12 21.0918 
3 *300:12 *300:14 95.7076 
4 *300:14 *300:20 41.8334 
5 *300:20 *2537:B 20 
6 *300:8 *300:33 22.2866 
7 *300:33 *300:39 40.8446 
8 *300:39 *2367:B 20 
9 *300:33 *2368:B 20 
*END

*D_NET *301 0.012277
*CONN
*I *2432:A I *D sg13g2_nand2_1
*I *2428:A I *D sg13g2_nand2_1
*I *2424:A I *D sg13g2_nand2_1
*I *2420:A I *D sg13g2_nand2_1
*I *2416:A I *D sg13g2_nand2_1
*I *2412:A I *D sg13g2_nand2_1
*I *2404:A I *D sg13g2_nand2_1
*I *2400:A I *D sg13g2_nand2_1
*I *2396:A I *D sg13g2_nand2_1
*I *2392:A I *D sg13g2_nand2_1
*I *2388:A I *D sg13g2_nand2_1
*I *2380:A I *D sg13g2_nand2_1
*I *2372:A I *D sg13g2_nand2_1
*I *2376:A I *D sg13g2_nand2_1
*I *2384:A I *D sg13g2_nand2_1
*I *2408:A I *D sg13g2_nand2_1
*I *2367:X O *D sg13g2_and2_1
*CAP
1 *2432:A 4.46546e-05
2 *2428:A 0
3 *2424:A 0
4 *2420:A 0
5 *2416:A 0
6 *2412:A 0
7 *2404:A 0
8 *2400:A 0
9 *2396:A 0
10 *2392:A 0
11 *2388:A 0
12 *2380:A 0
13 *2372:A 0
14 *2376:A 5.06711e-05
15 *2384:A 0
16 *2408:A 0
17 *2367:X 9.34663e-05
18 *301:89 0.000179599
19 *301:74 0.000424132
20 *301:72 0.00065618
21 *301:61 0.000658001
22 *301:59 0.000414851
23 *301:57 0.000403765
24 *301:55 0.000581784
25 *301:53 0.000654584
26 *301:51 0.000714312
27 *301:44 0.000162871
28 *301:34 0.00111583
29 *301:20 0.00103991
30 *301:12 0.000717818
31 *301:10 0.000383645
32 *301:8 0.000348457
33 *301:6 0.000276889
34 *2376:A *329:47 0
35 *2376:A *345:32 8.00842e-05
36 *2432:A *325:50 8.02267e-05
37 *301:8 *325:50 0.000208255
38 *301:8 *329:55 0
39 *301:10 *325:50 0.000338538
40 *301:10 *329:55 0
41 *301:12 *2420:B 0
42 *301:12 *325:50 0.000274412
43 *301:12 *329:47 0
44 *301:20 *302:31 0.000322424
45 *301:20 *302:33 0.000274412
46 *301:20 *325:50 0
47 *301:34 *2415:B 0.000112228
48 *301:34 *302:33 0.00027444
49 *301:34 *302:42 0
50 *301:34 *325:35 0
51 *301:44 *329:47 3.96571e-05
52 *301:44 *344:12 0.00022762
53 *301:51 *2407:A 4.77699e-05
54 *301:51 *302:48 0
55 *301:51 *302:63 0
56 *301:51 *302:73 0
57 *301:51 *329:47 0
58 *301:53 *302:73 0
59 *301:53 *329:47 0
60 *301:55 *2400:B 0
61 *301:55 *329:47 0
62 *301:55 *331:39 0
63 *301:57 *329:47 0
64 *301:57 *331:39 0
65 *301:59 *329:47 0
66 *301:59 *331:39 0
67 *301:61 *2388:B 0
68 *301:61 *329:47 0
69 *301:61 *331:39 0
70 *301:72 *2603:A 0
71 *301:72 *2603:B 8.03692e-05
72 *301:72 *307:18 0
73 *301:72 *329:47 0
74 *301:72 *331:39 0
75 *301:72 *344:37 0
76 *301:72 *345:18 4.7885e-05
77 *301:72 *345:32 0.000288461
78 *301:74 *307:18 0
79 *301:74 *329:47 0
80 *301:74 *345:32 4.77702e-05
81 *301:89 *303:20 0.000125014
82 *301:89 *344:37 8.01995e-05
83 output_no[51] *301:72 0
84 output_no[54] *301:55 7.9225e-05
85 output_no[56] *301:51 4.77699e-05
86 output_no[58] *301:34 7.97081e-05
87 output_o[50] *301:89 0
88 output_o[53] *301:57 0
89 output_o[53] *301:59 0
90 output_o[57] *301:51 4.77346e-05
91 output_o[58] *301:34 0.000111685
92 output_o[59] *301:34 0
93 *10:116 *301:8 0
94 *272:22 *301:44 3.96571e-05
*RES
1 *2367:X *301:6 21.0918 
2 *301:6 *301:8 1.4008 
3 *301:8 *301:10 2.266 
4 *301:10 *301:12 1.8334 
5 *301:12 *301:20 44.841 
6 *301:20 *301:34 5.356 
7 *301:34 *301:44 41.6763 
8 *301:44 *2408:A 20 
9 *301:34 *301:51 3.9964 
10 *301:51 *301:53 2.266 
11 *301:53 *301:55 3.9964 
12 *301:55 *301:57 1.8334 
13 *301:57 *301:59 2.266 
14 *301:59 *301:61 1.8334 
15 *301:61 *2384:A 20 
16 *301:61 *301:72 4.6968 
17 *301:72 *301:74 1.8334 
18 *301:74 *2376:A 20.5356 
19 *301:74 *301:89 41.6274 
20 *301:89 *2372:A 20 
21 *301:72 *2380:A 20 
22 *301:59 *2388:A 20 
23 *301:57 *2392:A 20 
24 *301:55 *2396:A 20 
25 *301:53 *2400:A 20 
26 *301:51 *2404:A 20 
27 *301:34 *2412:A 20 
28 *301:20 *2416:A 20 
29 *301:12 *2420:A 20 
30 *301:10 *2424:A 20 
31 *301:8 *2428:A 20 
32 *301:6 *2432:A 20.5356 
*END

*D_NET *302 0.0160426
*CONN
*I *2431:A I *D sg13g2_nor2_1
*I *2423:A I *D sg13g2_nor2_1
*I *2419:A I *D sg13g2_nor2_1
*I *2411:A I *D sg13g2_nor2_1
*I *2403:A I *D sg13g2_nor2_1
*I *2399:A I *D sg13g2_nor2_1
*I *2395:A I *D sg13g2_nor2_1
*I *2391:A I *D sg13g2_nor2_1
*I *2387:A I *D sg13g2_nor2_1
*I *2383:A I *D sg13g2_nor2_1
*I *2379:A I *D sg13g2_nor2_1
*I *2375:A I *D sg13g2_nor2_1
*I *2371:A I *D sg13g2_nor2_1
*I *2407:A I *D sg13g2_nor2_1
*I *2415:A I *D sg13g2_nor2_1
*I *2427:A I *D sg13g2_nor2_1
*I *2368:Y O *D sg13g2_nand2_1
*CAP
1 *2431:A 0.000198022
2 *2423:A 0
3 *2419:A 0
4 *2411:A 0
5 *2403:A 0
6 *2399:A 0
7 *2395:A 0
8 *2391:A 0
9 *2387:A 0
10 *2383:A 0
11 *2379:A 0
12 *2375:A 0
13 *2371:A 0
14 *2407:A 0.000131975
15 *2415:A 3.29727e-05
16 *2427:A 3.25441e-05
17 *2368:Y 0.000388
18 *302:149 0.000197818
19 *302:93 0.00042903
20 *302:85 0.000682461
21 *302:83 0.000726675
22 *302:81 0.000684461
23 *302:79 0.000468672
24 *302:77 0.000465645
25 *302:75 0.000617325
26 *302:73 0.00092533
27 *302:63 0.000764338
28 *302:48 0.000636253
29 *302:42 0.0004174
30 *302:33 0.000517891
31 *302:31 0.000865089
32 *302:29 0.00053121
33 *302:27 0.000639317
34 *302:14 0.000674249
35 *2407:A *322:37 7.30101e-05
36 *2407:A *329:47 4.79124e-05
37 *2427:A *2427:B 0
38 *2431:A *325:50 0
39 *2431:A *334:33 0.000305367
40 *302:14 *313:60 0
41 *302:14 *330:24 0
42 *302:27 *2427:B 0
43 *302:29 *325:50 0
44 *302:29 *334:33 0.000306311
45 *302:31 *325:50 0
46 *302:31 *334:33 0.000596979
47 *302:33 *334:33 0.000598567
48 *302:42 *334:33 0.000273537
49 *302:48 *322:37 0.000104117
50 *302:48 *334:33 0.00030551
51 *302:63 *2403:B 0
52 *302:63 *334:33 0
53 *302:73 *2399:B 0.000126325
54 *302:73 *2400:B 0.000230583
55 *302:73 *2403:B 0
56 *302:73 *331:39 0
57 *302:73 *334:33 0
58 *302:75 *313:44 0
59 *302:75 *316:31 0
60 *302:75 *329:47 0
61 *302:77 *313:44 0
62 *302:77 *316:31 0
63 *302:77 *329:47 0
64 *302:79 *313:19 0
65 *302:79 *313:44 0
66 *302:79 *329:47 0
67 *302:81 *313:19 0
68 *302:81 *329:47 0
69 *302:83 *313:19 0
70 *302:83 *329:47 0
71 *302:85 *313:19 0
72 *302:85 *329:47 0
73 *302:93 *313:19 0
74 *302:93 *329:47 0
75 *302:149 *328:48 0.000126047
76 output_no[60] *302:149 0
77 output_o[48] *302:93 0
78 output_o[49] *302:93 0
79 output_o[51] *302:83 0
80 output_o[54] *302:75 0
81 output_o[55] *302:73 0
82 output_o[57] *302:48 0
83 output_o[58] *302:42 0.000144027
84 output_o[62] *302:27 0.000488261
85 *2469:A_N *302:14 0.00027467
86 *3:345 *302:75 0
87 *10:89 *302:14 4.77702e-05
88 *10:106 *302:14 0
89 *10:116 *2427:A 4.78853e-05
90 *272:41 *302:149 0
91 *300:39 *302:14 0
92 *300:39 *302:27 0
93 *301:20 *302:31 0.000322424
94 *301:20 *302:33 0.000274412
95 *301:34 *302:33 0.00027444
96 *301:34 *302:42 0
97 *301:51 *2407:A 4.77699e-05
98 *301:51 *302:48 0
99 *301:51 *302:63 0
100 *301:51 *302:73 0
101 *301:53 *302:73 0
*RES
1 *2368:Y *302:14 43.5638 
2 *302:14 *2427:A 40.3193 
3 *302:14 *302:27 22.575 
4 *302:27 *302:29 2.0497 
5 *302:29 *302:31 3.9964 
6 *302:31 *302:33 3.9964 
7 *302:33 *2415:A 20.3502 
8 *302:33 *302:42 1.8334 
9 *302:42 *302:48 22.6471 
10 *302:48 *2407:A 41.1639 
11 *302:48 *302:63 22.0497 
12 *302:63 *302:73 44.4496 
13 *302:73 *302:75 3.9964 
14 *302:75 *302:77 1.8334 
15 *302:77 *302:79 2.266 
16 *302:79 *302:81 1.8334 
17 *302:81 *302:83 3.9964 
18 *302:83 *302:85 2.266 
19 *302:85 *302:93 43.4196 
20 *302:93 *2371:A 20 
21 *302:85 *2375:A 20 
22 *302:83 *2379:A 20 
23 *302:81 *2383:A 20 
24 *302:79 *2387:A 20 
25 *302:77 *2391:A 20 
26 *302:75 *2395:A 20 
27 *302:73 *2399:A 20 
28 *302:63 *2403:A 20 
29 *302:42 *2411:A 20 
30 *302:31 *302:149 41.5862 
31 *302:149 *2419:A 20 
32 *302:29 *2423:A 20 
33 *302:27 *2431:A 22.0497 
*END

*D_NET *303 0.0909129
*CONN
*I *2573:A I *D sg13g2_nand2_1
*I *2505:A I *D sg13g2_nand2_1
*I *2539:A I *D sg13g2_nand2_1
*I *2471:A I *D sg13g2_nand2_1
*I *2437:A I *D sg13g2_nand2_1
*I *2372:B I *D sg13g2_nand2_1
*I *2369:Y O *D sg13g2_nor2_1
*CAP
1 *2573:A 0.000315646
2 *2505:A 0.000349821
3 *2539:A 0.000633861
4 *2471:A 0
5 *2437:A 0
6 *2372:B 0
7 *2369:Y 2.59396e-05
8 *303:73 0.00125361
9 *303:67 0.00319879
10 *303:65 0.00274982
11 *303:61 0.000520597
12 *303:59 0.0041289
13 *303:52 0.000491104
14 *303:44 0.00842329
15 *303:37 0.000358083
16 *303:27 0.00743251
17 *303:20 0.00037265
18 *303:12 0.00882987
19 *303:10 0.00518608
20 *303:8 0.000341585
21 *2505:A *340:12 0.000228819
22 *2505:A *341:37 0
23 *2539:A *331:120 0.000242138
24 *2539:A *333:88 0.000533559
25 *2539:A *343:112 0
26 *2539:A *343:127 0
27 *2573:A *344:165 0
28 *2573:A *344:173 0
29 *303:12 *310:57 0.00548401
30 *303:12 *311:10 0
31 *303:12 *312:10 0.00719019
32 *303:20 *2375:B 0.000228663
33 *303:20 *2376:B 0
34 *303:20 *306:16 0.000124547
35 *303:27 *307:25 0
36 *303:27 *310:57 0.000902383
37 *303:27 *310:70 0.00501676
38 *303:27 *312:10 0.00114808
39 *303:37 *306:28 0.000106471
40 *303:44 *304:30 0
41 *303:44 *305:28 0.00552525
42 *303:44 *306:35 0
43 *303:44 *307:25 0
44 *303:44 *310:70 0.000932549
45 *303:52 *315:34 7.30101e-05
46 *303:52 *325:75 0.000144657
47 *303:52 *339:20 0.00054125
48 *303:59 *305:28 0.00039406
49 *303:59 *305:32 0
50 *303:59 *306:35 0
51 *303:59 *306:39 0.00634638
52 *303:59 *310:88 0
53 *303:65 *2504:A 0
54 *303:67 *305:32 0.000311109
55 *303:67 *305:45 0.00478578
56 *303:67 *307:62 0.00447247
57 *303:67 *312:48 0
58 *303:73 *329:104 0.000593257
59 *303:73 *340:190 0
60 output_no[114] *2539:A 0
61 output_no[26] *303:8 0
62 output_no[49] *303:20 0
63 output_no[64] *303:37 7.4559e-05
64 output_o[27] *2573:A 0.000540835
65 output_o[27] *303:8 7.46351e-05
66 output_o[50] *303:20 0
67 output_o[64] *303:37 0
68 *33:14 *303:12 0
69 *39:14 *2539:A 4.77702e-05
70 *127:12 *2573:A 0.000112541
71 *167:10 *303:73 0
72 *167:16 *2539:A 0
73 *301:89 *303:20 0.000125014
*RES
1 *2369:Y *303:8 40.3502 
2 *303:8 *303:10 20 
3 *303:10 *303:12 58.0714 
4 *303:12 *303:20 43.3887 
5 *303:20 *2372:B 20 
6 *303:12 *303:27 39.037 
7 *303:27 *303:37 42.9973 
8 *303:37 *2437:A 20 
9 *303:27 *303:44 40.1185 
10 *303:44 *303:52 44.532 
11 *303:52 *2471:A 20 
12 *303:44 *303:59 43.5793 
13 *303:59 *303:61 20 
14 *303:61 *303:65 21.0918 
15 *303:65 *303:67 33.6295 
16 *303:67 *303:73 45.2942 
17 *303:73 *2539:A 26.5714 
18 *303:61 *2505:A 42.8943 
19 *303:8 *2573:A 43.3269 
*END

*D_NET *304 0.0872656
*CONN
*I *2572:A I *D sg13g2_nor2_1
*I *2371:B I *D sg13g2_nor2_1
*I *2436:A I *D sg13g2_nor2_1
*I *2470:A I *D sg13g2_nor2_1
*I *2504:A I *D sg13g2_nor2_1
*I *2538:A I *D sg13g2_nor2_1
*I *2370:X O *D sg13g2_or2_1
*CAP
1 *2572:A 0.000706626
2 *2371:B 0.000854415
3 *2436:A 0.000519643
4 *2470:A 0.00044887
5 *2504:A 0.000457844
6 *2538:A 0
7 *2370:X 0.000116631
8 *304:50 0.000163368
9 *304:44 0.00406519
10 *304:42 0.00390182
11 *304:40 0.000457844
12 *304:38 0.00376405
13 *304:36 0.00392608
14 *304:32 0.000610896
15 *304:30 0.00380473
16 *304:28 0.00380473
17 *304:26 0.00092393
18 *304:22 0.00386231
19 *304:20 0.00345803
20 *304:18 0.00108383
21 *304:14 0.00670188
22 *304:12 0.0070371
23 *304:6 0.00138788
24 *2371:B *2376:B 0
25 *2371:B *329:47 0.000101532
26 *2436:A *2436:B 0.000241955
27 *2436:A *308:32 0
28 *2436:A *337:20 1.54008e-05
29 *2470:A *334:66 8.01995e-05
30 *2470:A *339:20 0
31 *2470:A *339:27 0
32 *2504:A *306:45 0
33 *2504:A *334:93 4.77425e-05
34 *2572:A *2572:B 0
35 *2572:A *2576:A 0.000500924
36 *304:14 *308:16 0
37 *304:18 *305:16 0
38 *304:22 *318:38 0
39 *304:22 *319:35 0.00251444
40 *304:26 *305:24 0
41 *304:26 *307:33 0.000435383
42 *304:30 *305:28 0.00571948
43 *304:30 *307:25 4.82481e-05
44 *304:38 *311:31 0.00106437
45 *304:38 *312:33 0.00135955
46 *304:38 *312:48 0.00480202
47 *304:44 *313:105 0.00406662
48 *304:44 *314:86 0
49 *304:44 *315:44 0.00215442
50 *304:44 *317:81 0
51 *304:50 *307:72 0.000487545
52 *304:50 *313:105 0.000487702
53 output_no[16] *2572:A 0
54 *2425:A *2371:B 0
55 *2425:C *2371:B 0
56 *2425:C *304:18 0
57 *2434:A *2436:A 0
58 *2435:A *2436:A 4.77425e-05
59 *3:13 *2572:A 0
60 *3:13 *304:6 0.0001773
61 *3:306 *2371:B 0
62 *7:17 *304:18 0
63 *9:88 *2436:A 0
64 *9:88 *304:26 0
65 *10:60 *2436:A 4.77425e-05
66 *10:73 *2436:A 5.4934e-05
67 *105:18 *304:14 0
68 *189:8 *2572:A 0.000209756
69 *211:20 *304:14 0.00519587
70 *276:12 *304:14 0.0048385
71 *290:20 *2572:A 7.45733e-05
72 *290:20 *304:6 0
73 *293:26 *304:30 0
74 *293:26 *304:38 0
75 *293:32 *2504:A 0.000433921
76 *303:44 *304:30 0
77 *303:65 *2504:A 0
*RES
1 *2370:X *304:6 21.1845 
2 *304:6 *304:12 46.5302 
3 *304:12 *304:14 79.2688 
4 *304:14 *304:18 21.8334 
5 *304:18 *304:20 20 
6 *304:20 *304:22 43.7956 
7 *304:22 *304:26 24.0582 
8 *304:26 *304:28 20 
9 *304:28 *304:30 39.037 
10 *304:30 *304:32 20 
11 *304:32 *304:36 21.0918 
12 *304:36 *304:38 40.5511 
13 *304:38 *304:40 20 
14 *304:40 *304:42 20 
15 *304:42 *304:44 40.9837 
16 *304:44 *304:50 42.575 
17 *304:50 *2538:A 20 
18 *304:40 *2504:A 43.8831 
19 *304:32 *2470:A 43.1106 
20 *304:26 *2436:A 44.2848 
21 *304:18 *2371:B 47.1688 
22 *304:6 *2572:A 27.21 
*END

*D_NET *305 0.0932325
*CONN
*I *2575:A I *D sg13g2_nand2_1
*I *2376:B I *D sg13g2_nand2_1
*I *2439:A I *D sg13g2_nand2_1
*I *2473:A I *D sg13g2_nand2_1
*I *2541:A I *D sg13g2_nand2_1
*I *2507:A I *D sg13g2_nand2_1
*I *2373:Y O *D sg13g2_nor3_1
*CAP
1 *2575:A 0
2 *2376:B 0.000572555
3 *2439:A 0.000371501
4 *2473:A 0
5 *2541:A 0
6 *2507:A 0
7 *2373:Y 0
8 *305:105 0.000635925
9 *305:68 0.000266734
10 *305:57 0.000301472
11 *305:45 0.00349242
12 *305:38 0.000308298
13 *305:32 0.00685137
14 *305:28 0.0065767
15 *305:26 0.00295784
16 *305:24 0.000891123
17 *305:20 0.00446674
18 *305:18 0.00394711
19 *305:16 0.000896972
20 *305:12 0.00582376
21 *305:10 0.00606447
22 *305:4 0.00120104
23 *2376:B *2375:B 0.00020719
24 *2376:B *306:16 0.00107052
25 *2439:A *307:39 0
26 *2439:A *308:32 0
27 *2439:A *337:28 0
28 *305:10 *309:10 0
29 *305:12 *309:12 0.00927
30 *305:12 *328:44 0
31 *305:16 *306:16 0.000232206
32 *305:16 *308:20 0
33 *305:20 *309:43 0
34 *305:20 *317:37 0
35 *305:20 *319:41 0.000626451
36 *305:20 *320:67 0
37 *305:20 *328:44 0
38 *305:32 *310:88 0.00562627
39 *305:32 *312:48 0
40 *305:38 *306:45 0
41 *305:38 *310:100 0
42 *305:38 *329:96 2.16263e-05
43 *305:45 *307:62 0
44 *305:45 *310:88 0.000278139
45 *305:45 *310:107 0.00586793
46 *305:57 *306:55 0.000489911
47 *305:105 *2577:A 0
48 output_no[97] *305:38 7.40536e-05
49 output_o[25] *305:105 0
50 output_o[49] *2376:B 0.000177282
51 output_o[66] *2439:A 0
52 *2292:A *305:20 0
53 *2371:B *2376:B 0
54 *3:54 *305:10 7.51285e-05
55 *3:63 *305:105 7.93691e-05
56 *4:9 *305:12 0
57 *5:9 *305:12 0
58 *5:13 *305:12 0
59 *5:17 *305:12 0
60 *6:13 *305:20 0
61 *6:73 *305:12 0
62 *40:20 *305:57 4.77425e-05
63 *41:12 *305:57 0.000117331
64 *281:47 *305:105 4.68833e-05
65 *282:34 *305:105 7.9225e-05
66 *284:69 *305:10 0
67 *284:104 *305:10 0.000231161
68 *284:104 *305:105 0.000334311
69 *284:139 *305:12 0
70 *290:20 *305:105 0
71 *293:26 *305:28 0
72 *293:26 *305:32 0.00591808
73 *303:20 *2376:B 0
74 *303:44 *305:28 0.00552525
75 *303:59 *305:28 0.00039406
76 *303:59 *305:32 0
77 *303:67 *305:32 0.000311109
78 *303:67 *305:45 0.00478578
79 *304:18 *305:16 0
80 *304:26 *305:24 0
81 *304:30 *305:28 0.00571948
*RES
1 *2373:Y *305:4 20 
2 *305:4 *305:10 45.7886 
3 *305:10 *305:12 63.4789 
4 *305:12 *305:16 23.3166 
5 *305:16 *305:18 20 
6 *305:18 *305:20 43.1467 
7 *305:20 *305:24 24.3054 
8 *305:24 *305:26 20 
9 *305:26 *305:28 39.037 
10 *305:28 *305:32 43.5278 
11 *305:32 *305:38 42.3278 
12 *305:38 *2507:A 20 
13 *305:32 *305:45 40.5511 
14 *305:45 *305:57 43.3218 
15 *305:57 *2541:A 20 
16 *305:28 *305:68 41.8334 
17 *305:68 *2473:A 20 
18 *305:24 *2439:A 42.8222 
19 *305:16 *2376:B 46.8495 
20 *305:4 *305:105 45.1706 
21 *305:105 *2575:A 20 
*END

*D_NET *306 0.0979488
*CONN
*I *2574:A I *D sg13g2_nor2_1
*I *2375:B I *D sg13g2_nor2_1
*I *2472:A I *D sg13g2_nor2_1
*I *2506:A I *D sg13g2_nor2_1
*I *2540:A I *D sg13g2_nor2_1
*I *2438:A I *D sg13g2_nor2_1
*I *2374:X O *D sg13g2_or3_1
*CAP
1 *2574:A 0
2 *2375:B 5.75529e-05
3 *2472:A 0
4 *2506:A 0.000362894
5 *2540:A 0
6 *2438:A 0
7 *2374:X 0
8 *306:105 0.00146104
9 *306:81 0.000347376
10 *306:55 0.000431662
11 *306:47 0.00379317
12 *306:45 0.00375588
13 *306:41 0.000757268
14 *306:39 0.00335955
15 *306:35 0.00771723
16 *306:28 0.000552028
17 *306:20 0.00782892
18 *306:18 0.00326659
19 *306:16 0.00053526
20 *306:12 0.0074266
21 *306:10 0.00748027
22 *306:6 0.00199242
23 *2506:A *334:93 0.000144841
24 *2506:A *340:12 0.000228819
25 *2506:A *341:37 0
26 *306:10 *308:14 0
27 *306:12 *319:35 0
28 *306:16 *2379:B 0
29 *306:16 *308:20 0
30 *306:20 *310:57 0.000935157
31 *306:20 *310:70 0.00506283
32 *306:20 *315:12 0.00175445
33 *306:20 *321:20 0
34 *306:20 *321:33 0
35 *306:28 *2434:B 0
36 *306:28 *325:50 0
37 *306:28 *334:50 0.000274527
38 *306:28 *335:8 0
39 *306:35 *309:51 0.00493393
40 *306:35 *310:70 0.000884391
41 *306:35 *321:33 0
42 *306:39 *309:51 0
43 *306:39 *311:39 0.000343792
44 *306:39 *311:56 0.00508465
45 *306:47 *308:55 0.00615653
46 *306:55 *308:61 0
47 *306:55 *342:176 0.000330846
48 *306:55 *343:142 0
49 *306:81 *334:66 0.00014436
50 *306:81 *339:27 0
51 *306:81 *339:35 1.54556e-05
52 *306:105 *2578:A 0
53 *306:105 *2596:A 0
54 output_no[14] *306:105 0
55 output_no[17] *306:105 0
56 output_o[21] *306:10 0.000919046
57 output_o[21] *306:105 0.000756765
58 output_o[65] *306:28 4.77699e-05
59 *2332:B *306:10 0
60 *2332:B *306:105 0
61 *2376:B *2375:B 0.00020719
62 *2376:B *306:16 0.00107052
63 *2434:A *306:28 0
64 *2504:A *306:45 0
65 *2606:B *306:105 0
66 *7:53 *306:12 0
67 *41:12 *306:55 8.01118e-05
68 *50:12 *306:105 0.00157163
69 *105:18 *306:12 0.00621359
70 *270:18 *306:12 0.000540348
71 *276:20 *306:12 0
72 *282:20 *306:12 0
73 *282:26 *306:12 0
74 *289:65 *306:10 0
75 *293:43 *306:20 0.000477901
76 *296:8 *306:105 0
77 *296:16 *306:105 0.00111543
78 *299:30 *306:105 0
79 *303:20 *2375:B 0.000228663
80 *303:20 *306:16 0.000124547
81 *303:37 *306:28 0.000106471
82 *303:44 *306:35 0
83 *303:59 *306:35 0
84 *303:59 *306:39 0.00634638
85 *305:16 *306:16 0.000232206
86 *305:38 *306:45 0
87 *305:57 *306:55 0.000489911
*RES
1 *2374:X *306:6 40 
2 *306:6 *306:10 26.0358 
3 *306:10 *306:12 73.4287 
4 *306:12 *306:16 26.0358 
5 *306:16 *306:18 20 
6 *306:18 *306:20 39.4696 
7 *306:20 *306:28 44.6556 
8 *306:28 *2438:A 20 
9 *306:20 *306:35 41.6326 
10 *306:35 *306:39 42.6317 
11 *306:39 *306:41 20 
12 *306:41 *306:45 22.8222 
13 *306:45 *306:47 42.2815 
14 *306:47 *306:55 45.0882 
15 *306:55 *2540:A 20 
16 *306:41 *2506:A 43.5535 
17 *306:35 *306:81 42.5544 
18 *306:81 *2472:A 20 
19 *306:16 *2375:B 41.0918 
20 *306:6 *306:105 37.0059 
21 *306:105 *2574:A 20 
*END

*D_NET *307 0.0948316
*CONN
*I *2577:A I *D sg13g2_nand2_1
*I *2475:A I *D sg13g2_nand2_1
*I *2509:A I *D sg13g2_nand2_1
*I *2543:A I *D sg13g2_nand2_1
*I *2441:A I *D sg13g2_nand2_1
*I *2380:B I *D sg13g2_nand2_1
*I *2377:Y O *D sg13g2_nor3_1
*CAP
1 *2577:A 0.000597015
2 *2475:A 6.6481e-05
3 *2509:A 5.57104e-05
4 *2543:A 0
5 *2441:A 0
6 *2380:B 0
7 *2377:Y 0
8 *307:72 0.000724878
9 *307:62 0.00375369
10 *307:60 0.00325357
11 *307:56 0.000280467
12 *307:54 0.00318791
13 *307:52 0.00318791
14 *307:50 0.000574393
15 *307:46 0.00343939
16 *307:39 0.000774803
17 *307:33 0.00409518
18 *307:25 0.00415848
19 *307:18 0.000468433
20 *307:10 0.00968422
21 *307:8 0.0054462
22 *307:6 0.000597015
23 *2509:A *2508:A 0.00010454
24 *2577:A *2577:B 0
25 *2577:A *344:183 0
26 *307:10 *311:10 0.0085909
27 *307:10 *320:45 0
28 *307:10 *330:14 0
29 *307:18 *329:47 8.01995e-05
30 *307:25 *311:10 0.000705253
31 *307:25 *311:18 0
32 *307:25 *312:10 0
33 *307:25 *330:14 0
34 *307:33 *308:24 4.97583e-05
35 *307:33 *308:32 0.000382382
36 *307:33 *308:39 0.000478183
37 *307:39 *2442:A 0
38 *307:39 *337:60 0.0001262
39 *307:46 *308:39 0.00602067
40 *307:46 *310:80 0.00639895
41 *307:50 *310:84 0
42 *307:50 *311:39 0
43 *307:54 *309:51 0.000343507
44 *307:54 *309:64 0.00592297
45 *307:54 *321:46 0.00270871
46 *307:54 *321:69 0.00303187
47 *307:54 *327:56 0
48 *307:60 *2508:A 0.000488611
49 *307:62 *312:48 0
50 *307:72 *342:154 0.00022912
51 *307:72 *342:161 0
52 *307:72 *342:168 0
53 output_no[112] *307:72 0.000111202
54 output_no[82] *2475:A 7.40536e-05
55 output_no[98] *2509:A 0
56 output_o[112] *307:72 0
57 output_o[25] *2577:A 0
58 output_o[67] *307:39 0
59 *2369:A *2577:A 0.000232069
60 *2439:A *307:39 0
61 *11:12 *307:10 0
62 *33:14 *307:10 0
63 *39:10 *307:72 0
64 *39:14 *307:72 0
65 *255:10 *2577:A 0
66 *268:42 *307:10 0.00080215
67 *275:91 *307:10 0.00047418
68 *275:237 *307:10 0.000344238
69 *284:104 *2577:A 7.33256e-05
70 *285:14 *307:10 0.00485959
71 *293:26 *307:25 0.00240958
72 *297:12 *307:10 0
73 *299:30 *2577:A 0
74 *301:72 *307:18 0
75 *301:74 *307:18 0
76 *303:27 *307:25 0
77 *303:44 *307:25 0
78 *303:67 *307:62 0.00447247
79 *304:26 *307:33 0.000435383
80 *304:30 *307:25 4.82481e-05
81 *304:50 *307:72 0.000487545
82 *305:45 *307:62 0
83 *305:105 *2577:A 0
*RES
1 *2377:Y *307:6 40 
2 *307:6 *307:8 20 
3 *307:8 *307:10 66.2908 
4 *307:10 *307:18 43.3578 
5 *307:18 *2380:B 20 
6 *307:10 *307:25 39.2533 
7 *307:25 *307:33 45.4281 
8 *307:33 *307:39 45.2942 
9 *307:39 *2441:A 20 
10 *307:33 *307:46 40.7674 
11 *307:46 *307:50 23.811 
12 *307:50 *307:52 20 
13 *307:52 *307:54 41.2 
14 *307:54 *307:56 20 
15 *307:56 *307:60 22.3278 
16 *307:60 *307:62 35.3599 
17 *307:62 *307:72 46.5199 
18 *307:72 *2543:A 20 
19 *307:56 *2509:A 40.5974 
20 *307:50 *2475:A 40.5974 
21 *307:6 *2577:A 44.841 
*END

*D_NET *308 0.0893265
*CONN
*I *2576:A I *D sg13g2_nor2_1
*I *2379:B I *D sg13g2_nor2_1
*I *2474:A I *D sg13g2_nor2_1
*I *2508:A I *D sg13g2_nor2_1
*I *2542:A I *D sg13g2_nor2_1
*I *2440:A I *D sg13g2_nor2_1
*I *2378:X O *D sg13g2_or3_1
*CAP
1 *2576:A 0.000374638
2 *2379:B 0.000556717
3 *2474:A 0.000875882
4 *2508:A 0.000445068
5 *2542:A 0
6 *2440:A 0
7 *2378:X 8.89857e-05
8 *308:113 0.00135791
9 *308:61 0.000446394
10 *308:55 0.00358094
11 *308:53 0.00313455
12 *308:51 0.000609854
13 *308:47 0.00363195
14 *308:45 0.00367369
15 *308:41 0.00108241
16 *308:39 0.00335397
17 *308:32 0.000534204
18 *308:24 0.00705929
19 *308:22 0.00317111
20 *308:20 0.0011077
21 *308:16 0.00666723
22 *308:14 0.00666822
23 *308:10 0.00162424
24 *2474:A *334:66 0.000404041
25 *2474:A *339:35 4.75442e-05
26 *2508:A *2508:B 0
27 *2508:A *310:100 0.000542641
28 *2508:A *334:93 4.77702e-05
29 *308:24 *315:20 0.00484334
30 *308:24 *327:37 0.00432663
31 *308:32 *337:37 0.000144217
32 *308:39 *315:20 0.00152132
33 *308:47 *318:55 0
34 *308:47 *318:72 0
35 *308:61 *312:64 0
36 *308:113 *2578:A 0
37 output_no[16] *2576:A 0.000537963
38 output_no[81] *2474:A 0.000176083
39 output_no[98] *2508:A 0
40 output_o[50] *2379:B 7.40536e-05
41 *2332:A *308:113 0
42 *2335:A *308:10 0
43 *2335:B *308:10 0
44 *2436:A *308:32 0
45 *2439:A *308:32 0
46 *2509:A *2508:A 0.00010454
47 *2572:A *2576:A 0.000500924
48 *2614:C *308:14 0
49 *2614:C *308:113 0
50 *4:7 *308:14 0.000342157
51 *10:60 *308:32 0.000144217
52 *44:18 *308:16 0.0109179
53 *173:12 *2379:B 0
54 *173:12 *308:20 0
55 *276:88 *308:14 0
56 *282:48 *308:113 0
57 *290:20 *308:113 0.000955209
58 *297:8 *308:14 7.49317e-05
59 *304:14 *308:16 0
60 *305:16 *308:20 0
61 *306:10 *308:14 0
62 *306:16 *2379:B 0
63 *306:16 *308:20 0
64 *306:47 *308:55 0.00615653
65 *306:55 *308:61 0
66 *307:33 *308:24 4.97583e-05
67 *307:33 *308:32 0.000382382
68 *307:33 *308:39 0.000478183
69 *307:46 *308:39 0.00602067
70 *307:60 *2508:A 0.000488611
*RES
1 *2378:X *308:10 40.8549 
2 *308:10 *308:14 26.5302 
3 *308:14 *308:16 77.1058 
4 *308:16 *308:20 25.2942 
5 *308:20 *308:22 20 
6 *308:22 *308:24 40.1185 
7 *308:24 *308:32 44.532 
8 *308:32 *2440:A 20 
9 *308:24 *308:39 40.9837 
10 *308:39 *308:41 20 
11 *308:41 *308:45 22.0806 
12 *308:45 *308:47 43.7956 
13 *308:47 *308:51 21.8334 
14 *308:51 *308:53 20 
15 *308:53 *308:55 40.9837 
16 *308:55 *308:61 43.811 
17 *308:61 *2542:A 20 
18 *308:51 *2508:A 45.1191 
19 *308:41 *2474:A 47.5705 
20 *308:20 *2379:B 44.4805 
21 *308:10 *308:113 49.6717 
22 *308:113 *2576:A 44.3672 
*END

*D_NET *309 0.0952659
*CONN
*I *2579:A I *D sg13g2_nand2_1
*I *2443:A I *D sg13g2_nand2_1
*I *2511:A I *D sg13g2_nand2_1
*I *2545:A I *D sg13g2_nand2_1
*I *2477:A I *D sg13g2_nand2_1
*I *2384:B I *D sg13g2_nand2_1
*I *2381:Y O *D sg13g2_nor3_1
*CAP
1 *2579:A 0.000429671
2 *2443:A 0.000335954
3 *2511:A 0
4 *2545:A 0
5 *2477:A 0
6 *2384:B 0
7 *2381:Y 0
8 *309:87 0.000125148
9 *309:76 0.00207505
10 *309:72 0.00358259
11 *309:64 0.00474713
12 *309:57 8.57693e-05
13 *309:51 0.00712198
14 *309:49 0.00392177
15 *309:47 0.000773631
16 *309:43 0.0042192
17 *309:28 0.000519396
18 *309:20 0.00507491
19 *309:12 0.0062284
20 *309:10 0.0060044
21 *309:6 0.000979659
22 *2443:A *2442:A 0
23 *2443:A *336:28 0
24 *2443:A *336:35 8.01915e-05
25 *2443:A *337:67 0
26 *2579:A *345:104 0
27 *309:12 *328:44 0
28 *309:28 *310:63 0.0002802
29 *309:28 *311:16 0
30 *309:43 *313:50 0
31 *309:43 *320:51 0.000436424
32 *309:43 *320:63 0
33 *309:43 *320:67 0.00406536
34 *309:43 *341:14 0.00293102
35 *309:51 *311:39 8.08422e-05
36 *309:51 *321:33 0
37 *309:51 *321:46 0
38 *309:57 *2476:A 0.000177127
39 *309:64 *311:39 0.00026304
40 *309:64 *311:56 0.00572447
41 *309:64 *321:69 0
42 *309:72 *310:107 0
43 *309:72 *311:56 0
44 *309:72 *311:75 0
45 *309:72 *321:69 0
46 *309:76 *2535:B 0
47 *309:76 *311:77 0.0034827
48 *309:76 *313:117 0
49 *309:76 *330:57 0
50 *309:76 *333:109 0
51 *309:76 *340:171 0
52 *309:76 *342:176 0
53 *309:76 *343:127 0
54 output_no[111] *309:76 0
55 output_no[98] *309:87 0
56 output_no[99] *309:87 0
57 output_o[25] *2579:A 0.000573435
58 output_o[25] *309:10 0.000707887
59 *2292:A *309:43 0
60 *2308:C *2579:A 0
61 *2329:A *309:43 0
62 *2329:B *309:43 0
63 *2381:B *2579:A 7.44263e-05
64 *2381:B *309:10 0.000366855
65 *3:353 *309:43 8.02267e-05
66 *6:13 *309:20 0
67 *6:13 *309:43 0.000754517
68 *8:80 *309:43 0
69 *40:20 *309:76 0
70 *45:10 *309:20 0
71 *45:10 *309:28 0
72 *45:18 *309:12 0.0063768
73 *150:12 *309:12 0
74 *173:12 *309:20 0.00129892
75 *173:14 *309:12 0
76 *255:10 *2579:A 0.000177042
77 *270:48 *309:10 0.000446829
78 *281:47 *2579:A 0.000192494
79 *284:42 *309:10 0
80 *292:10 *309:43 0
81 *295:10 *309:20 0
82 *295:10 *309:43 0
83 *305:10 *309:10 0
84 *305:12 *309:12 0.00927
85 *305:20 *309:43 0
86 *306:35 *309:51 0.00493393
87 *306:39 *309:51 0
88 *307:54 *309:51 0.000343507
89 *307:54 *309:64 0.00592297
*RES
1 *2381:Y *309:6 40 
2 *309:6 *309:10 27.0246 
3 *309:10 *309:12 66.0745 
4 *309:12 *309:20 48.5181 
5 *309:20 *309:28 44.3775 
6 *309:28 *2384:B 20 
7 *309:20 *309:43 43.4357 
8 *309:43 *309:47 22.8222 
9 *309:47 *309:49 20 
10 *309:49 *309:51 39.4696 
11 *309:51 *309:57 40.8446 
12 *309:57 *2477:A 20 
13 *309:51 *309:64 40.7674 
14 *309:64 *309:72 35.1101 
15 *309:72 *309:76 43.2471 
16 *309:76 *2545:A 20 
17 *309:64 *309:87 40.8446 
18 *309:87 *2511:A 20 
19 *309:47 *2443:A 42.884 
20 *309:6 *2579:A 44.8925 
*END

*D_NET *310 0.107211
*CONN
*I *2442:A I *D sg13g2_nor2_1
*I *2476:A I *D sg13g2_nor2_1
*I *2544:A I *D sg13g2_nor2_1
*I *2510:A I *D sg13g2_nor2_1
*I *2383:B I *D sg13g2_nor2_1
*I *2578:A I *D sg13g2_nor2_1
*I *2382:X O *D sg13g2_or3_1
*CAP
1 *2442:A 0.000401328
2 *2476:A 0.000326661
3 *2544:A 0
4 *2510:A 0
5 *2383:B 0
6 *2578:A 0.00218199
7 *2382:X 0.000152252
8 *310:113 0.000367383
9 *310:107 0.00387546
10 *310:100 0.000654049
11 *310:88 0.00786141
12 *310:86 0.00369928
13 *310:84 0.000611412
14 *310:80 0.00351327
15 *310:78 0.00373019
16 *310:74 0.000927199
17 *310:70 0.00302129
18 *310:63 0.00012871
19 *310:57 0.00677702
20 *310:55 0.00379297
21 *310:51 0.00273421
22 *310:47 0.00284294
23 *310:10 0.00243248
24 *310:8 0.000152252
25 *2442:A *336:28 0
26 *2442:A *337:60 4.77347e-05
27 *2476:A *311:39 0.000207331
28 *2476:A *334:66 4.77702e-05
29 *2476:A *339:42 0
30 *2578:A *2572:B 0.000274439
31 *2578:A *2596:A 0.000176625
32 *2578:A *345:133 4.77702e-05
33 *310:51 *320:37 0.00270075
34 *310:57 *315:12 0
35 *310:84 *311:39 0.000176399
36 *310:88 *311:56 0
37 *310:100 *2508:B 8.00842e-05
38 *310:100 *334:93 0.000112791
39 *310:100 *341:57 0.000241868
40 *310:100 *341:68 0
41 *310:107 *311:56 0.00070506
42 *310:107 *311:75 0.000785506
43 output_no[16] *2578:A 0
44 output_no[23] *310:8 0.000332298
45 output_no[67] *2442:A 0
46 output_o[17] *2578:A 0
47 *2299:A *310:47 4.66107e-05
48 *2443:A *2442:A 0
49 *2508:A *310:100 0.000542641
50 *2606:A *2578:A 8.02267e-05
51 *33:14 *310:57 0.0020359
52 *61:22 *310:47 0
53 *159:14 *310:107 0
54 *164:16 *310:107 0.00319311
55 *170:6 *2578:A 0
56 *244:12 *310:51 0.00453602
57 *275:104 *310:8 0
58 *275:104 *310:47 0
59 *275:123 *2578:A 0
60 *275:123 *310:47 0
61 *275:125 *2578:A 0
62 *275:129 *2578:A 0.000177229
63 *275:137 *2578:A 3.24213e-05
64 *275:139 *2578:A 0.000453895
65 *275:141 *2578:A 0.000129502
66 *275:143 *2578:A 0.000389096
67 *281:47 *2578:A 0.000662348
68 *281:47 *310:47 0.000258897
69 *285:22 *310:57 0.000244504
70 *285:45 *310:57 0.000461405
71 *290:20 *2578:A 0
72 *298:12 *310:51 0
73 *303:12 *310:57 0.00548401
74 *303:27 *310:57 0.000902383
75 *303:27 *310:70 0.00501676
76 *303:44 *310:70 0.000932549
77 *303:59 *310:88 0
78 *305:32 *310:88 0.00562627
79 *305:38 *310:100 0
80 *305:45 *310:88 0.000278139
81 *305:45 *310:107 0.00586793
82 *306:20 *310:57 0.000935157
83 *306:20 *310:70 0.00506283
84 *306:35 *310:70 0.000884391
85 *306:105 *2578:A 0
86 *307:39 *2442:A 0
87 *307:46 *310:80 0.00639895
88 *307:50 *310:84 0
89 *308:113 *2578:A 0
90 *309:28 *310:63 0.0002802
91 *309:57 *2476:A 0.000177127
92 *309:72 *310:107 0
*RES
1 *2382:X *310:8 41.5862 
2 *310:8 *310:10 20 
3 *310:10 *2578:A 42.1296 
4 *310:10 *310:47 42.4308 
5 *310:47 *310:51 49.9524 
6 *310:51 *310:55 20.8446 
7 *310:55 *310:57 42.0652 
8 *310:57 *310:63 41.339 
9 *310:63 *2383:B 20 
10 *310:57 *310:70 39.2533 
11 *310:70 *310:74 20.3193 
12 *310:74 *310:78 23.3166 
13 *310:78 *310:80 42.2815 
14 *310:80 *310:84 22.575 
15 *310:84 *310:86 20 
16 *310:86 *310:88 38.8207 
17 *310:88 *310:100 46.5302 
18 *310:100 *2510:A 20 
19 *310:88 *310:107 43.363 
20 *310:107 *310:113 42.575 
21 *310:113 *2544:A 20 
22 *310:84 *2476:A 42.8943 
23 *310:74 *2442:A 43.2342 
*END

*D_NET *311 0.100363
*CONN
*I *2581:A I *D sg13g2_nand2_1
*I *2388:B I *D sg13g2_nand2_1
*I *2547:A I *D sg13g2_nand2_1
*I *2513:A I *D sg13g2_nand2_1
*I *2479:A I *D sg13g2_nand2_1
*I *2445:A I *D sg13g2_nand2_1
*I *2385:Y O *D sg13g2_nor3_1
*CAP
1 *2581:A 0.000516556
2 *2388:B 0.00040334
3 *2547:A 0
4 *2513:A 0
5 *2479:A 0
6 *2445:A 0
7 *2385:Y 0
8 *311:85 0.000412972
9 *311:77 0.00308161
10 *311:75 0.00313349
11 *311:64 0.000539211
12 *311:56 0.00432189
13 *311:45 0.000106115
14 *311:39 0.00377964
15 *311:31 0.00342959
16 *311:24 0.000448927
17 *311:18 0.00711058
18 *311:16 0.00368641
19 *311:12 0.000501984
20 *311:10 0.00490154
21 *311:8 0.00490154
22 *311:6 0.000516556
23 *2388:B *329:47 0.000112343
24 *2581:A *344:157 0.000124547
25 *311:10 *312:10 0.00824015
26 *311:18 *330:14 0.00369073
27 *311:18 *330:31 0.00266721
28 *311:31 *312:33 0
29 *311:31 *330:31 0.00354361
30 *311:45 *312:41 0.000228663
31 *311:64 *2512:A 0
32 *311:64 *313:93 0.000177899
33 *311:64 *333:76 0.000112228
34 *311:64 *340:48 0
35 *311:77 *314:86 0
36 *311:77 *330:57 0
37 *311:77 *342:10 0
38 *311:77 *342:187 0
39 *311:85 *2547:B 0
40 output_no[113] *311:85 0.000280554
41 output_no[68] *311:24 7.44263e-05
42 output_o[100] *311:64 0.000280998
43 output_o[52] *2388:B 0.000177481
44 *2385:B *2581:A 7.55526e-05
45 *2476:A *311:39 0.000207331
46 *9:9 *311:77 0.00192637
47 *28:8 *311:77 0
48 *168:10 *311:85 8.02269e-05
49 *275:75 *2581:A 0.00014514
50 *281:33 *2581:A 8.02269e-05
51 *293:26 *311:18 0.00348959
52 *293:26 *311:31 0.00584908
53 *301:61 *2388:B 0
54 *303:12 *311:10 0
55 *304:38 *311:31 0.00106437
56 *306:39 *311:39 0.000343792
57 *306:39 *311:56 0.00508465
58 *307:10 *311:10 0.0085909
59 *307:25 *311:10 0.000705253
60 *307:25 *311:18 0
61 *307:50 *311:39 0
62 *309:28 *311:16 0
63 *309:51 *311:39 8.08422e-05
64 *309:64 *311:39 0.00026304
65 *309:64 *311:56 0.00572447
66 *309:72 *311:56 0
67 *309:72 *311:75 0
68 *309:76 *311:77 0.0034827
69 *310:84 *311:39 0.000176399
70 *310:88 *311:56 0
71 *310:107 *311:56 0.00070506
72 *310:107 *311:75 0.000785506
*RES
1 *2385:Y *311:6 40 
2 *311:6 *311:8 20 
3 *311:8 *311:10 61.3159 
4 *311:10 *311:12 20 
5 *311:12 *311:16 20.8446 
6 *311:16 *311:18 41.8489 
7 *311:18 *311:24 42.8222 
8 *311:24 *2445:A 20 
9 *311:18 *311:31 38.6044 
10 *311:31 *311:39 44.0994 
11 *311:39 *311:45 41.0918 
12 *311:45 *2479:A 20 
13 *311:39 *311:56 43.2291 
14 *311:56 *311:64 44.5629 
15 *311:64 *2513:A 20 
16 *311:56 *311:75 45.2942 
17 *311:75 *311:77 30.1687 
18 *311:77 *311:85 43.3578 
19 *311:85 *2547:A 20 
20 *311:12 *2388:B 43.3269 
21 *311:6 *2581:A 44.3466 
*END

*D_NET *312 0.0822782
*CONN
*I *2580:A I *D sg13g2_nor2_1
*I *2387:B I *D sg13g2_nor2_1
*I *2512:A I *D sg13g2_nor2_1
*I *2546:A I *D sg13g2_nor2_1
*I *2478:A I *D sg13g2_nor2_1
*I *2444:A I *D sg13g2_nor2_1
*I *2386:X O *D sg13g2_or3_1
*CAP
1 *2580:A 0.000452851
2 *2387:B 0.000261212
3 *2512:A 0.000508532
4 *2546:A 0
5 *2478:A 0
6 *2444:A 0
7 *2386:X 0
8 *312:72 0.000359349
9 *312:64 0.000803423
10 *312:56 0.00376469
11 *312:54 0.00345579
12 *312:50 0.000643707
13 *312:48 0.00349487
14 *312:41 0.000551427
15 *312:33 0.007677
16 *312:26 0.000600538
17 *312:18 0.00809525
18 *312:16 0.00408516
19 *312:12 0.000482352
20 *312:10 0.0042595
21 *312:8 0.0042595
22 *312:6 0.000452851
23 *2512:A *334:93 4.77702e-05
24 *2512:A *341:83 0
25 *2512:A *343:10 0
26 *2580:A *344:147 0.00020815
27 *312:18 *315:20 0
28 *312:18 *320:45 0.001228
29 *312:18 *330:14 0.00359393
30 *312:18 *330:31 0.00271645
31 *312:26 *314:54 0
32 *312:26 *337:67 0
33 *312:33 *315:20 0
34 *312:33 *330:31 0.00349363
35 *312:41 *334:66 4.77702e-05
36 *312:41 *339:57 1.54285e-05
37 *312:56 *313:105 0
38 *312:56 *314:86 0
39 *312:56 *317:81 0.00120449
40 *312:64 *314:94 0.000337237
41 *312:72 *2546:B 0
42 output_no[31] *2580:A 0.000178117
43 output_no[68] *312:26 0.000178703
44 output_o[31] *2580:A 0.000696125
45 *28:8 *312:64 0.000273729
46 *40:20 *312:64 0.000241281
47 *41:12 *312:72 0.000176511
48 *286:12 *2580:A 8.01995e-05
49 *300:20 *2512:A 0.000384045
50 *303:12 *312:10 0.00719019
51 *303:27 *312:10 0.00114808
52 *303:67 *312:48 0
53 *304:38 *312:33 0.00135955
54 *304:38 *312:48 0.00480202
55 *305:32 *312:48 0
56 *307:25 *312:10 0
57 *307:62 *312:48 0
58 *308:61 *312:64 0
59 *311:10 *312:10 0.00824015
60 *311:31 *312:33 0
61 *311:45 *312:41 0.000228663
62 *311:64 *2512:A 0
*RES
1 *2386:X *312:6 40 
2 *312:6 *312:8 20 
3 *312:8 *312:10 55.0432 
4 *312:10 *312:12 20 
5 *312:12 *312:16 21.5862 
6 *312:16 *312:18 41.6326 
7 *312:18 *312:26 44.3466 
8 *312:26 *2444:A 20 
9 *312:18 *312:33 40.1185 
10 *312:33 *312:41 44.1303 
11 *312:41 *2478:A 20 
12 *312:33 *312:48 42.9304 
13 *312:48 *312:50 20 
14 *312:50 *312:54 21.0918 
15 *312:54 *312:56 36.4414 
16 *312:56 *312:64 45.15 
17 *312:64 *312:72 42.7707 
18 *312:72 *2546:A 20 
19 *312:50 *2512:A 44.1303 
20 *312:12 *2387:B 41.8334 
21 *312:6 *2580:A 44.7174 
*END

*D_NET *313 0.0767521
*CONN
*I *2481:A I *D sg13g2_nand2_1
*I *2515:A I *D sg13g2_nand2_1
*I *2549:A I *D sg13g2_nand2_1
*I *2447:A I *D sg13g2_nand2_1
*I *2392:B I *D sg13g2_nand2_1
*I *2583:A I *D sg13g2_nand2_1
*I *2389:Y O *D sg13g2_nor3_1
*CAP
1 *2481:A 0
2 *2515:A 0
3 *2549:A 0.000132872
4 *2447:A 0
5 *2392:B 0
6 *2583:A 0
7 *2389:Y 0
8 *313:137 0.000103422
9 *313:117 0.000782704
10 *313:105 0.00326468
11 *313:99 0.0029435
12 *313:93 0.00065574
13 *313:85 0.00387357
14 *313:77 0.00797386
15 *313:66 0.000147187
16 *313:60 0.00643949
17 *313:50 0.00375496
18 *313:44 0.00231907
19 *313:31 0.000260747
20 *313:19 0.00510133
21 *313:12 0.000550143
22 *313:4 0.00485827
23 *2549:A *342:168 0
24 *313:12 *2586:A 0
25 *313:19 *2584:A 0
26 *313:19 *321:16 8.01116e-05
27 *313:19 *324:10 8.01995e-05
28 *313:19 *329:47 0
29 *313:19 *344:76 0.000403018
30 *313:19 *344:84 0
31 *313:19 *345:88 0
32 *313:31 *314:43 0
33 *313:44 *315:18 0
34 *313:50 *320:51 0
35 *313:50 *330:24 0.00022912
36 *313:50 *339:8 0
37 *313:60 *325:50 0
38 *313:77 *2467:B 0.00032427
39 *313:77 *315:28 0.00247799
40 *313:77 *334:66 0
41 *313:77 *336:63 0
42 *313:77 *336:70 0
43 *313:77 *336:77 0
44 *313:77 *336:84 8.03692e-05
45 *313:77 *336:97 0.000259356
46 *313:77 *336:104 0.000324127
47 *313:77 *336:111 0.000259269
48 *313:77 *338:23 0
49 *313:77 *338:30 0.000598009
50 *313:77 *338:37 0.000323925
51 *313:77 *338:44 0.000259011
52 *313:77 *338:51 0.000583397
53 *313:85 *2499:A 0
54 *313:85 *2499:B 0.000259356
55 *313:85 *334:93 0
56 *313:85 *338:58 0
57 *313:85 *338:65 0
58 *313:85 *338:80 0.000145099
59 *313:85 *338:87 0.00032427
60 *313:85 *338:94 0.000259127
61 *313:85 *338:101 0.000583626
62 *313:85 *338:108 0.00032427
63 *313:85 *338:115 0.000259329
64 *313:85 *338:122 0.000324067
65 *313:85 *340:6 0.000242098
66 *313:85 *340:19 0.000259011
67 *313:85 *340:26 0.00032381
68 *313:85 *340:33 0.000258114
69 *313:85 *340:40 0.000421375
70 *313:85 *340:55 3.17099e-05
71 *313:93 *334:93 0.00046795
72 *313:93 *340:48 0.000126325
73 *313:93 *343:10 0.000371783
74 *313:99 *314:84 0.000540155
75 *313:99 *330:51 0
76 *313:99 *343:10 7.33256e-05
77 *313:105 *317:81 0
78 *313:117 *342:176 0
79 *313:117 *343:142 0.00022762
80 output_no[112] *313:117 0
81 output_no[114] *2549:A 0.000176674
82 output_no[63] *313:60 0
83 output_no[79] *313:77 0
84 output_no[85] *313:137 7.40536e-05
85 output_no[95] *313:85 0
86 output_o[112] *313:117 8.01575e-05
87 output_o[113] *313:117 0
88 *2329:B *313:50 0.00108346
89 *2350:A *313:19 0
90 *2389:A *313:12 4.77425e-05
91 *2389:B *313:12 4.77702e-05
92 *2389:C *313:12 0
93 *2410:B *313:19 0.00056535
94 *2422:A_N *313:19 4.77425e-05
95 *2426:B *313:19 0
96 *2469:A_N *313:60 0
97 *3:345 *313:19 0
98 *3:345 *313:44 0
99 *8:9 *313:60 0.00143904
100 *8:9 *313:77 0
101 *8:11 *313:60 0.000598337
102 *8:29 *313:50 0.000112418
103 *8:45 *313:50 0
104 *8:47 *313:50 0
105 *9:20 *313:50 0.000274413
106 *9:22 *313:50 0.000598107
107 *9:88 *313:60 0.000598479
108 *10:17 *313:99 0
109 *10:36 *313:85 0.00163305
110 *10:44 *313:77 0
111 *10:44 *313:85 0.00216993
112 *10:60 *313:60 0
113 *10:60 *313:77 0.000921934
114 *10:89 *313:60 0
115 *10:116 *313:60 0.000501197
116 *10:126 *313:50 0
117 *10:128 *313:50 0
118 *40:20 *313:117 0.000241728
119 *138:8 *313:19 0
120 *215:8 *313:31 0.000177282
121 *267:69 *313:12 0
122 *268:22 *313:12 0
123 *271:12 *313:50 0.000533424
124 *271:37 *313:50 0.000129589
125 *271:37 *313:60 1.54008e-05
126 *275:16 *313:50 0.000985124
127 *275:36 *313:19 0.00166309
128 *281:107 *313:19 0
129 *285:73 *313:19 0.000208899
130 *287:54 *313:19 0.00147022
131 *294:34 *313:19 0
132 *294:72 *313:19 0
133 *294:234 *313:19 8.00842e-05
134 *295:10 *313:50 0
135 *300:33 *313:60 0.000279052
136 *302:14 *313:60 0
137 *302:75 *313:44 0
138 *302:77 *313:44 0
139 *302:79 *313:19 0
140 *302:79 *313:44 0
141 *302:81 *313:19 0
142 *302:83 *313:19 0
143 *302:85 *313:19 0
144 *302:93 *313:19 0
145 *304:44 *313:105 0.00406662
146 *304:50 *313:105 0.000487702
147 *309:43 *313:50 0
148 *309:76 *313:117 0
149 *311:64 *313:93 0.000177899
150 *312:56 *313:105 0
*RES
1 *2389:Y *313:4 20 
2 *313:4 *313:12 44.3466 
3 *313:12 *2583:A 20 
4 *313:4 *313:19 40.5511 
5 *313:19 *313:31 42.5441 
6 *313:31 *2392:B 20 
7 *313:19 *313:44 44.223 
8 *313:44 *313:50 39.5803 
9 *313:50 *313:60 40.3734 
10 *313:60 *313:66 41.0918 
11 *313:66 *2447:A 20 
12 *313:60 *313:77 43.3836 
13 *313:77 *313:85 38.9752 
14 *313:85 *313:93 43.9758 
15 *313:93 *313:99 43.3166 
16 *313:99 *313:105 49.7155 
17 *313:105 *313:117 46.1594 
18 *313:117 *2549:A 41.1845 
19 *313:93 *2515:A 20 
20 *313:77 *313:137 40.8446 
21 *313:137 *2481:A 20 
*END

*D_NET *314 0.0697407
*CONN
*I *2446:A I *D sg13g2_nor2_1
*I *2548:A I *D sg13g2_nor2_1
*I *2514:A I *D sg13g2_nor2_1
*I *2480:A I *D sg13g2_nor2_1
*I *2391:B I *D sg13g2_nor2_1
*I *2582:A I *D sg13g2_nor2_1
*I *2390:Y O *D sg13g2_nand3b_1
*CAP
1 *2446:A 0
2 *2548:A 0
3 *2514:A 0
4 *2480:A 0
5 *2391:B 0
6 *2582:A 0.000140786
7 *2390:Y 0.000466143
8 *314:94 0.000489661
9 *314:86 0.00407366
10 *314:84 0.00391473
11 *314:71 0.000330727
12 *314:69 0.00392047
13 *314:62 0
14 *314:58 0.00805889
15 *314:56 0.00413842
16 *314:54 0.000333639
17 *314:50 0.00403855
18 *314:43 0.000478875
19 *314:33 0.00511872
20 *314:25 0.0037491
21 *314:10 0.00342109
22 *2582:A *345:76 0
23 *314:10 *316:10 0.00069914
24 *314:10 *316:23 0.000125944
25 *314:25 *324:23 0.00174945
26 *314:25 *325:25 0
27 *314:25 *326:21 0
28 *314:33 *323:23 0
29 *314:50 *323:23 0
30 *314:50 *323:42 0.00277436
31 *314:58 *316:63 0.00591247
32 *314:58 *319:49 0.00119354
33 *314:58 *327:45 0
34 *314:58 *327:56 0
35 *314:58 *328:61 0
36 *314:69 *316:63 0.000310448
37 *314:69 *316:78 0.00592644
38 *314:69 *321:69 0
39 *314:69 *327:56 0
40 *314:69 *329:90 0
41 *314:84 *315:48 0
42 *314:84 *343:10 0
43 *314:86 *315:44 7.99721e-05
44 *314:86 *324:59 0.00189369
45 *314:94 *334:116 0.00043828
46 output_no[101] *314:84 0.000179341
47 output_no[39] *314:25 0.000181592
48 output_no[68] *314:54 0
49 output_o[101] *314:84 4.81157e-05
50 output_o[114] *314:94 0
51 output_o[39] *314:10 0
52 *2349:A *314:10 0.000417511
53 *2350:A *314:10 0
54 *2350:A *314:25 0
55 *2390:B *314:10 0.000284398
56 *9:9 *314:86 0
57 *22:12 *314:25 0
58 *28:8 *314:86 0
59 *30:10 *314:94 7.98582e-05
60 *168:10 *314:94 0.000144542
61 *267:106 *314:10 0.000157874
62 *272:43 *314:50 0.00325984
63 *283:178 *314:10 0.000124826
64 *287:31 *314:25 0
65 *294:72 *2582:A 0.000208265
66 *304:44 *314:86 0
67 *311:77 *314:86 0
68 *312:26 *314:54 0
69 *312:56 *314:86 0
70 *312:64 *314:94 0.000337237
71 *313:31 *314:43 0
72 *313:99 *314:84 0.000540155
*RES
1 *2390:Y *314:10 46.3551 
2 *314:10 *2582:A 41.4008 
3 *314:10 *314:25 48.8503 
4 *314:25 *314:33 49.2597 
5 *314:33 *314:43 43.8934 
6 *314:43 *2391:B 20 
7 *314:33 *314:50 41.2 
8 *314:50 *314:54 22.3278 
9 *314:54 *314:56 20 
10 *314:56 *314:58 42.9304 
11 *314:58 *314:62 40 
12 *314:62 *2480:A 20 
13 *314:58 *314:69 41.2 
14 *314:69 *314:71 20 
15 *314:71 *2514:A 40 
16 *314:71 *314:84 23.3887 
17 *314:84 *314:86 34.0621 
18 *314:86 *314:94 45.0264 
19 *314:94 *2548:A 20 
20 *314:54 *2446:A 40 
*END

*D_NET *315 0.0721907
*CONN
*I *2585:A I *D sg13g2_nand2_1
*I *2396:B I *D sg13g2_nand2_1
*I *2449:A I *D sg13g2_nand2_1
*I *2483:A I *D sg13g2_nand2_1
*I *2551:A I *D sg13g2_nand2_1
*I *2517:A I *D sg13g2_nand2_1
*I *2393:Y O *D sg13g2_nor3_1
*CAP
1 *2585:A 0.000404954
2 *2396:B 0.000211215
3 *2449:A 0.000517896
4 *2483:A 0.000339748
5 *2551:A 0.000534599
6 *2517:A 0.000117387
7 *2393:Y 7.94938e-05
8 *315:48 0.00105505
9 *315:44 0.00372308
10 *315:42 0.00340841
11 *315:38 0.0017148
12 *315:34 0.00143865
13 *315:28 0.00260489
14 *315:24 0.00335559
15 *315:20 0.00410158
16 *315:18 0.00412188
17 *315:14 0.000616314
18 *315:12 0.00457467
19 *315:10 0.00457467
20 *315:8 0.000484448
21 *2449:A *336:49 0
22 *2449:A *336:56 0
23 *2449:A *337:82 0
24 *2517:A *334:93 0.000176741
25 *2517:A *340:62 0
26 *2551:A *2516:A 0
27 *2551:A *341:90 0.000176599
28 *2551:A *341:98 0
29 *2551:A *343:14 0
30 *2585:A *318:8 0
31 *2585:A *319:33 0
32 *2585:A *344:117 4.77425e-05
33 *315:12 *316:25 0
34 *315:12 *320:37 0
35 *315:12 *321:20 0
36 *315:20 *320:45 0.000670327
37 *315:44 *324:59 0
38 *315:44 *330:37 0.00264106
39 *315:44 *341:14 0
40 output_no[101] *2551:A 0.000209977
41 output_no[101] *315:48 7.33256e-05
42 output_no[102] *2517:A 4.79124e-05
43 output_no[102] *2551:A 0
44 output_no[102] *315:48 0
45 output_no[69] *2449:A 0.000119893
46 output_o[102] *2551:A 4.75425e-05
47 *2389:A *315:8 0.00012596
48 *2389:B *315:8 0
49 *2389:C *2585:A 7.30101e-05
50 *2389:C *315:8 0.000229924
51 *8:9 *315:28 0.00419476
52 *9:11 *315:38 0.00244421
53 *10:34 *315:48 0
54 *33:14 *315:12 0.00125566
55 *159:10 *2551:A 0
56 *281:84 *2585:A 8.00842e-05
57 *285:22 *315:12 0.000244504
58 *285:45 *315:12 0.000477068
59 *300:14 *315:38 0.00244537
60 *300:14 *315:44 0.00552524
61 *303:52 *315:34 7.30101e-05
62 *304:44 *315:44 0.00215442
63 *306:20 *315:12 0.00175445
64 *308:24 *315:20 0.00484334
65 *308:39 *315:20 0.00152132
66 *310:57 *315:12 0
67 *312:18 *315:20 0
68 *312:33 *315:20 0
69 *313:44 *315:18 0
70 *313:77 *315:28 0.00247799
71 *314:84 *315:48 0
72 *314:86 *315:44 7.99721e-05
*RES
1 *2393:Y *315:8 41.0918 
2 *315:8 *315:10 20 
3 *315:10 *315:12 42.2815 
4 *315:12 *315:14 20 
5 *315:14 *315:18 23.0694 
6 *315:18 *315:20 40.1185 
7 *315:20 *315:24 22.575 
8 *315:24 *315:28 48.0057 
9 *315:28 *315:34 41.0918 
10 *315:34 *315:38 36.3255 
11 *315:38 *315:42 20.5974 
12 *315:42 *315:44 39.6859 
13 *315:44 *315:48 22.8222 
14 *315:48 *2517:A 41.1845 
15 *315:48 *2551:A 45.0367 
16 *315:38 *2483:A 42.3278 
17 *315:24 *2449:A 44.4702 
18 *315:14 *2396:B 41.7613 
19 *315:8 *2585:A 43.1106 
*END

*D_NET *316 0.0670411
*CONN
*I *2550:A I *D sg13g2_nor2_1
*I *2516:A I *D sg13g2_nor2_1
*I *2482:A I *D sg13g2_nor2_1
*I *2448:A I *D sg13g2_nor2_1
*I *2395:B I *D sg13g2_nor2_1
*I *2584:A I *D sg13g2_nor2_1
*I *2394:Y O *D sg13g2_nand3b_1
*CAP
1 *2550:A 0.000108695
2 *2516:A 4.31415e-05
3 *2482:A 0
4 *2448:A 2.46556e-05
5 *2395:B 0
6 *2584:A 0.000173366
7 *2394:Y 0.000313593
8 *316:80 0.000151836
9 *316:78 0.00331767
10 *316:71 7.52377e-05
11 *316:63 0.0070601
12 *316:61 0.0036672
13 *316:50 0.000160378
14 *316:46 0.00451976
15 *316:44 0.00468135
16 *316:31 3.93867e-05
17 *316:25 0.00366826
18 *316:23 0.00336101
19 *316:10 0.000516415
20 *2448:A *318:48 2.19989e-05
21 *2584:A *345:88 0
22 *316:25 *320:37 0.00037545
23 *316:25 *321:20 0.00470975
24 *316:25 *326:21 0
25 *316:31 *329:47 4.77699e-05
26 *316:44 *321:20 0.000129897
27 *316:44 *326:21 0
28 *316:46 *323:23 0.00138937
29 *316:46 *323:42 0.0016407
30 *316:46 *324:34 0
31 *316:46 *325:25 0.00191588
32 *316:63 *322:54 0
33 *316:63 *328:61 0.00237932
34 *316:63 *328:80 0.000164141
35 *316:71 *334:66 4.79124e-05
36 *316:71 *339:64 0
37 *316:78 *320:105 0.00508201
38 *316:78 *321:69 0
39 *316:78 *322:54 0
40 output_no[102] *2516:A 0
41 output_no[39] *316:10 0.00022762
42 output_no[39] *316:23 0.000104471
43 output_no[70] *2448:A 7.44237e-05
44 output_no[70] *316:50 0.000257683
45 output_o[39] *316:10 0
46 output_o[54] *316:44 0.000436071
47 output_o[86] *316:71 2.14736e-05
48 *2551:A *2516:A 0
49 *267:104 *316:10 4.75166e-05
50 *287:31 *316:25 0.00293287
51 *287:52 *316:25 0.000130737
52 *294:72 *2584:A 0
53 *295:62 *316:10 4.75166e-05
54 *302:75 *316:31 0
55 *302:77 *316:31 0
56 *313:19 *2584:A 0
57 *314:10 *316:10 0.00069914
58 *314:10 *316:23 0.000125944
59 *314:58 *316:63 0.00591247
60 *314:69 *316:63 0.000310448
61 *314:69 *316:78 0.00592644
62 *315:12 *316:25 0
*RES
1 *2394:Y *316:10 43.6359 
2 *316:10 *2584:A 41.4008 
3 *316:10 *316:23 20.5974 
4 *316:23 *316:25 37.5229 
5 *316:25 *316:31 40.3193 
6 *316:31 *2395:B 20 
7 *316:25 *316:44 43.0488 
8 *316:44 *316:46 42.2815 
9 *316:46 *316:50 21.339 
10 *316:50 *2448:A 40.3502 
11 *316:50 *316:61 20 
12 *316:61 *316:63 40.9837 
13 *316:63 *316:71 40.6695 
14 *316:71 *2482:A 20 
15 *316:63 *316:78 40.9837 
16 *316:78 *316:80 20 
17 *316:80 *2516:A 40.3502 
18 *316:80 *2550:A 40.8446 
*END

*D_NET *317 0.0554212
*CONN
*I *2400:B I *D sg13g2_nand2_1
*I *2553:A I *D sg13g2_nand2_1
*I *2519:A I *D sg13g2_nand2_1
*I *2485:A I *D sg13g2_nand2_1
*I *2451:A I *D sg13g2_nand2_1
*I *2587:A I *D sg13g2_nand2_1
*I *2397:Y O *D sg13g2_nor3_1
*CAP
1 *2400:B 0.000651909
2 *2553:A 0.000336195
3 *2519:A 0
4 *2485:A 0
5 *2451:A 0
6 *2587:A 0
7 *2397:Y 0
8 *317:85 0.00085544
9 *317:81 0.00462213
10 *317:74 0.000111322
11 *317:68 0.000786912
12 *317:60 0.00539418
13 *317:52 0.00402397
14 *317:45 0.00085281
15 *317:37 0.0076597
16 *317:35 0.00373301
17 *317:29 0.000986283
18 *317:27 0.00433394
19 *317:25 0.00456838
20 *317:14 0.000781168
21 *317:4 0.00101561
22 *2400:B *2399:B 0
23 *2400:B *319:45 0
24 *2400:B *329:47 8.01116e-05
25 *2553:A *2518:A 1.54008e-05
26 *2553:A *2518:B 1.54008e-05
27 *2553:A *340:84 0
28 *2553:A *341:104 0
29 *2553:A *342:29 0
30 *2553:A *342:33 0.000177042
31 *2553:A *343:29 3.98468e-05
32 *317:14 *344:133 0
33 *317:14 *344:141 0
34 *317:27 *327:37 0.00462522
35 *317:35 *2399:B 0
36 *317:35 *319:45 0
37 *317:37 *319:41 0
38 *317:37 *328:44 0.00165398
39 *317:45 *318:48 0.00154188
40 *317:45 *336:56 0
41 *317:45 *336:63 0
42 *317:60 *341:14 0
43 *317:68 *318:65 0.000849699
44 *317:68 *334:66 0.000404239
45 *317:68 *338:65 0
46 *317:74 *338:73 0.000124547
47 *317:81 *341:14 0
48 *317:85 *318:76 0
49 *317:85 *340:84 0
50 output_no[103] *2553:A 0.000160972
51 output_no[103] *317:85 7.46398e-05
52 output_no[87] *317:74 7.47964e-05
53 *2397:C *317:14 0.000177547
54 *3:144 *317:14 0.000274785
55 *3:155 *317:14 8.02267e-05
56 *7:53 *317:27 0
57 *268:22 *317:14 6.4771e-05
58 *268:32 *317:14 0.000112826
59 *278:51 *317:25 0
60 *282:108 *317:27 0
61 *283:87 *317:27 0
62 *288:14 *317:27 0.00249323
63 *294:10 *2400:B 0.000232037
64 *299:56 *317:14 0
65 *301:55 *2400:B 0
66 *302:73 *2400:B 0.000230583
67 *304:44 *317:81 0
68 *305:20 *317:37 0
69 *312:56 *317:81 0.00120449
70 *313:105 *317:81 0
*RES
1 *2397:Y *317:4 20 
2 *317:4 *317:14 46.6126 
3 *317:14 *2587:A 20 
4 *317:4 *317:25 41.8334 
5 *317:25 *317:27 52.4476 
6 *317:27 *317:29 20 
7 *317:29 *317:35 22.9252 
8 *317:35 *317:37 39.037 
9 *317:37 *317:45 49.1052 
10 *317:45 *2451:A 20 
11 *317:37 *317:52 39.037 
12 *317:52 *317:60 46.4478 
13 *317:60 *317:68 46.7568 
14 *317:68 *317:74 41.0918 
15 *317:74 *2485:A 20 
16 *317:60 *317:81 43.363 
17 *317:81 *317:85 24.0582 
18 *317:85 *2519:A 40 
19 *317:85 *2553:A 43.4917 
20 *317:29 *2400:B 45.5826 
*END

*D_NET *318 0.0476627
*CONN
*I *2399:B I *D sg13g2_nor2_1
*I *2552:A I *D sg13g2_nor2_1
*I *2518:A I *D sg13g2_nor2_1
*I *2484:A I *D sg13g2_nor2_1
*I *2450:A I *D sg13g2_nor2_1
*I *2586:A I *D sg13g2_nor2_1
*I *2398:Y O *D sg13g2_nand3b_1
*CAP
1 *2399:B 0.000919736
2 *2552:A 0.000145986
3 *2518:A 7.74511e-05
4 *2484:A 0
5 *2450:A 0
6 *2586:A 0.000154085
7 *2398:Y 0.000710248
8 *318:76 0.00105845
9 *318:72 0.00403666
10 *318:65 0.000831956
11 *318:55 0.00720887
12 *318:48 0.000932173
13 *318:38 0.00705537
14 *318:36 0.00294794
15 *318:34 0.00118906
16 *318:30 0.00437417
17 *318:28 0.00410485
18 *318:26 0.000539683
19 *318:8 0.000324649
20 *2518:A *341:104 0.0001122
21 *2552:A *342:29 0.000112228
22 *2552:A *343:29 1.54285e-05
23 *2586:A *345:88 0.00019233
24 *2586:A *345:98 1.54008e-05
25 *318:26 *319:33 0.00059963
26 *318:48 *337:89 0
27 *318:65 *334:66 8.01392e-05
28 *318:65 *339:71 0
29 output_no[103] *318:76 0
30 output_o[103] *2552:A 0.000176557
31 output_o[37] *318:8 0.000647129
32 output_o[55] *2399:B 0
33 *2389:B *318:8 0.000259006
34 *2389:C *318:26 0.000443118
35 *2400:B *2399:B 0
36 *2448:A *318:48 2.19989e-05
37 *2553:A *2518:A 1.54008e-05
38 *2585:A *318:8 0
39 *5:9 *318:26 0.000599904
40 *6:11 *2399:B 0
41 *6:11 *318:34 0
42 *44:18 *318:30 0
43 *45:14 *318:30 0.00365533
44 *159:10 *2552:A 0.000208403
45 *159:10 *318:76 0.000445611
46 *266:14 *318:30 0
47 *268:14 *318:8 0.000335184
48 *276:12 *318:30 0
49 *276:12 *318:38 0.000598442
50 *282:178 *318:26 0
51 *302:73 *2399:B 0.000126325
52 *304:22 *318:38 0
53 *308:47 *318:55 0
54 *308:47 *318:72 0
55 *313:12 *2586:A 0
56 *317:35 *2399:B 0
57 *317:45 *318:48 0.00154188
58 *317:68 *318:65 0.000849699
59 *317:85 *318:76 0
*RES
1 *2398:Y *318:8 43.0694 
2 *318:8 *2586:A 41.4008 
3 *2398:Y *318:26 46.5302 
4 *318:26 *318:28 20 
5 *318:28 *318:30 46.1749 
6 *318:30 *318:34 22.8222 
7 *318:34 *318:36 20 
8 *318:36 *318:38 39.2533 
9 *318:38 *318:48 49.9189 
10 *318:48 *2450:A 20 
11 *318:38 *318:55 42.4978 
12 *318:55 *318:65 48.6211 
13 *318:65 *2484:A 20 
14 *318:55 *318:72 42.4978 
15 *318:72 *318:76 27.7662 
16 *318:76 *2518:A 40.7519 
17 *318:76 *2552:A 41.8437 
18 *318:34 *2399:B 47.2718 
*END

*D_NET *319 0.0732604
*CONN
*I *2404:B I *D sg13g2_nand2_1
*I *2555:A I *D sg13g2_nand2_1
*I *2521:A I *D sg13g2_nand2_1
*I *2487:A I *D sg13g2_nand2_1
*I *2453:A I *D sg13g2_nand2_1
*I *2589:A I *D sg13g2_nand2_1
*I *2401:Y O *D sg13g2_nor3_1
*CAP
1 *2404:B 4.16414e-05
2 *2555:A 0
3 *2521:A 0
4 *2487:A 0
5 *2453:A 2.86482e-05
6 *2589:A 0.000143737
7 *2401:Y 0.000634798
8 *319:112 0.000446406
9 *319:97 0.000574535
10 *319:89 0.00333331
11 *319:87 0.00351628
12 *319:74 0.000395347
13 *319:66 0.00502475
14 *319:64 0.00453877
15 *319:51 0.00024912
16 *319:49 0.00364663
17 *319:47 0.00364663
18 *319:45 0.000835999
19 *319:41 0.00116709
20 *319:35 0.00404528
21 *319:33 0.00461067
22 *319:27 0.00337488
23 *319:10 0.0032153
24 *2453:A *320:71 7.40536e-05
25 *319:10 *344:163 0
26 *319:41 *328:44 0
27 *319:45 *2403:B 0
28 *319:49 *321:20 0
29 *319:49 *321:33 0
30 *319:49 *322:41 0
31 *319:49 *326:21 0.000769818
32 *319:49 *327:45 0.00444208
33 *319:49 *328:61 0
34 *319:64 *320:71 5.15366e-05
35 *319:64 *320:84 0.000279156
36 *319:66 *320:86 0
37 *319:66 *323:42 0.000837174
38 *319:66 *323:61 0.000621573
39 *319:66 *328:84 0.00459912
40 *319:74 *334:66 4.77425e-05
41 *319:74 *338:80 0
42 *319:74 *338:87 0
43 *319:87 *328:84 0.000246032
44 *319:89 *323:61 0
45 *319:89 *325:108 0
46 *319:89 *327:75 0.00452118
47 *319:89 *328:84 0
48 *319:97 *326:100 0.000227773
49 *319:97 *333:76 4.77425e-05
50 *319:112 *2554:A 8.02269e-05
51 *319:112 *2555:B 0.000124773
52 *319:112 *2556:A 0
53 *319:112 *333:76 0.000209499
54 *319:112 *340:103 0
55 *319:112 *341:119 0.000111685
56 *319:112 *342:59 7.30101e-05
57 output_no[37] *319:33 0
58 output_no[71] *319:64 0
59 output_no[88] *319:87 0
60 output_o[104] *319:97 0.0002802
61 output_o[28] *319:10 0
62 output_o[28] *319:27 0
63 *2314:A *319:10 0
64 *2314:B *2589:A 0
65 *2385:C *319:10 0
66 *2389:C *319:33 0.000332997
67 *2400:B *319:45 0
68 *2585:A *319:33 0
69 *3:71 *319:10 0.000229491
70 *6:39 *319:35 0.000322471
71 *6:57 *319:35 0.000836422
72 *7:53 *319:35 0.00113066
73 *42:16 *319:27 0
74 *83:8 *319:10 0
75 *127:12 *2589:A 0
76 *275:36 *319:33 0.000489133
77 *276:8 *319:45 0
78 *280:18 *319:27 0.0014092
79 *280:40 *319:27 0.00238245
80 *281:33 *2589:A 0
81 *283:91 *319:33 0
82 *283:106 *319:33 0
83 *284:203 *319:33 0
84 *290:16 *319:10 7.93692e-05
85 *294:10 *319:45 0
86 *296:42 *319:27 0
87 *299:30 *2589:A 0
88 *304:22 *319:35 0.00251444
89 *305:20 *319:41 0.000626451
90 *306:12 *319:35 0
91 *314:58 *319:49 0.00119354
92 *317:35 *319:45 0
93 *317:37 *319:41 0
94 *318:26 *319:33 0.00059963
*RES
1 *2401:Y *319:10 45.0882 
2 *319:10 *2589:A 41.0368 
3 *319:10 *319:27 47.2744 
4 *319:27 *319:33 49.4966 
5 *319:33 *319:35 44.0119 
6 *319:35 *319:41 44.2127 
7 *319:41 *319:45 26.5302 
8 *319:45 *319:47 20 
9 *319:47 *319:49 40.7674 
10 *319:49 *319:51 20 
11 *319:51 *2453:A 40.3502 
12 *319:51 *319:64 22.0806 
13 *319:64 *319:66 43.1467 
14 *319:66 *319:74 42.6471 
15 *319:74 *2487:A 20 
16 *319:66 *319:87 42.7089 
17 *319:87 *319:89 39.2533 
18 *319:89 *319:97 41.6583 
19 *319:97 *2521:A 20 
20 *319:97 *319:112 44.017 
21 *319:112 *2555:A 20 
22 *319:45 *2404:B 40.3502 
*END

*D_NET *320 0.0757078
*CONN
*I *2403:B I *D sg13g2_nor2_1
*I *2554:A I *D sg13g2_nor2_1
*I *2520:A I *D sg13g2_nor2_1
*I *2486:A I *D sg13g2_nor2_1
*I *2452:A I *D sg13g2_nor2_1
*I *2588:A I *D sg13g2_nor2_1
*I *2402:X O *D sg13g2_or3_1
*CAP
1 *2403:B 0.000759173
2 *2554:A 0.000229257
3 *2520:A 0.000130022
4 *2486:A 0.000227795
5 *2452:A 3.50688e-05
6 *2588:A 0.000389506
7 *2402:X 0.000134642
8 *320:109 0.000411601
9 *320:105 0.00399208
10 *320:103 0.00393976
11 *320:90 0.000318257
12 *320:86 0.00449579
13 *320:84 0.00452977
14 *320:71 0.000746962
15 *320:67 0.00396637
16 *320:65 0.00337892
17 *320:63 0.000438849
18 *320:55 0.00136016
19 *320:51 0.000427056
20 *320:45 0.00445041
21 *320:43 0.00465185
22 *320:37 0.00330853
23 *320:35 0.00287929
24 *320:22 0.00102585
25 *320:10 0.000808104
26 *2403:B *334:33 0.000143908
27 *2452:A *337:104 1.54008e-05
28 *2486:A *334:66 0.000366617
29 *2486:A *339:101 0
30 *2520:A *2555:B 0
31 *2520:A *330:57 4.79124e-05
32 *2520:A *340:84 0
33 *2520:A *341:104 0
34 *2554:A *340:103 0
35 *2554:A *341:104 4.77425e-05
36 *2554:A *341:119 0.000112314
37 *2554:A *342:33 4.77425e-05
38 *2554:A *342:42 0.000160292
39 *320:10 *328:10 0.000124547
40 *320:10 *345:104 0.000111037
41 *320:22 *344:157 0.000370731
42 *320:22 *345:104 0.000467758
43 *320:35 *328:10 0.000125963
44 *320:35 *344:157 7.31655e-05
45 *320:45 *330:14 0
46 *320:67 *341:14 0
47 *320:86 *324:34 0.000902563
48 *320:86 *324:49 0.00587553
49 *320:90 *334:66 0.00012559
50 *320:105 *321:69 0
51 *320:105 *322:54 8.09822e-05
52 *320:105 *323:80 0
53 *320:105 *324:49 0
54 *320:109 *326:100 0.000124547
55 output_no[25] *2588:A 0.00024131
56 output_no[26] *320:22 0
57 output_no[71] *320:84 0
58 output_no[72] *2452:A 0
59 output_o[104] *2520:A 0.000126829
60 output_o[104] *320:109 0.000176557
61 *2292:A *320:67 0
62 *2304:A *2588:A 4.77425e-05
63 *2329:A *320:51 0
64 *2329:A *320:63 7.92265e-05
65 *2329:B *320:63 0.000435493
66 *2390:C *320:43 0
67 *2453:A *320:71 7.40536e-05
68 *3:353 *2403:B 0
69 *11:8 *320:22 0.000227899
70 *33:14 *320:37 0
71 *127:12 *2588:A 0
72 *244:12 *320:37 0
73 *269:41 *320:45 0
74 *275:8 *2403:B 0
75 *277:105 *2588:A 4.77425e-05
76 *281:33 *2588:A 0
77 *281:33 *320:22 0
78 *281:47 *2588:A 0
79 *287:31 *320:37 0
80 *290:20 *320:22 0.000272976
81 *291:32 *320:10 0.000111114
82 *295:10 *320:51 0
83 *298:12 *320:37 0.00253815
84 *302:63 *2403:B 0
85 *302:73 *2403:B 0
86 *305:20 *320:67 0
87 *307:10 *320:45 0
88 *309:43 *320:51 0.000436424
89 *309:43 *320:63 0
90 *309:43 *320:67 0.00406536
91 *310:51 *320:37 0.00270075
92 *312:18 *320:45 0.001228
93 *313:50 *320:51 0
94 *315:12 *320:37 0
95 *315:20 *320:45 0.000670327
96 *316:25 *320:37 0.00037545
97 *316:78 *320:105 0.00508201
98 *319:45 *2403:B 0
99 *319:64 *320:71 5.15366e-05
100 *319:64 *320:84 0.000279156
101 *319:66 *320:86 0
102 *319:112 *2554:A 8.02269e-05
*RES
1 *2402:X *320:10 41.3493 
2 *320:10 *320:22 46.8392 
3 *320:22 *2588:A 43.5638 
4 *320:10 *320:35 20.5974 
5 *320:35 *320:37 30.1687 
6 *320:37 *320:43 43.3166 
7 *320:43 *320:45 39.4696 
8 *320:45 *320:51 42.9149 
9 *320:51 *320:55 21.0918 
10 *320:55 *320:63 44.2539 
11 *320:63 *320:65 20 
12 *320:65 *320:67 36.874 
13 *320:67 *320:71 24.3054 
14 *320:71 *2452:A 40.3193 
15 *320:71 *320:84 21.339 
16 *320:84 *320:86 44.6608 
17 *320:86 *320:90 20.8446 
18 *320:90 *2486:A 42.2145 
19 *320:90 *320:103 20 
20 *320:103 *320:105 39.4696 
21 *320:105 *320:109 20.8446 
22 *320:109 *2520:A 41.1639 
23 *320:109 *2554:A 42.3999 
24 *320:55 *2403:B 45.5208 
*END

*D_NET *321 0.0584882
*CONN
*I *2591:A I *D sg13g2_nand2_1
*I *2557:A I *D sg13g2_nand2_1
*I *2523:A I *D sg13g2_nand2_1
*I *2489:A I *D sg13g2_nand2_1
*I *2455:A I *D sg13g2_nand2_1
*I *2408:B I *D sg13g2_nand2_1
*I *2405:Y O *D sg13g2_nor3_1
*CAP
1 *2591:A 2.87967e-05
2 *2557:A 0.000124772
3 *2523:A 0
4 *2489:A 0
5 *2455:A 0
6 *2408:B 0
7 *2405:Y 0.000253562
8 *321:73 0.000298827
9 *321:69 0.00360639
10 *321:67 0.00393252
11 *321:52 0.000548348
12 *321:46 0.00366136
13 *321:39 2.8135e-05
14 *321:33 0.00753987
15 *321:26 5.27864e-05
16 *321:20 0.0080657
17 *321:18 0.00411437
18 *321:16 0.000133806
19 *321:8 0.000358571
20 *2557:A *342:67 0.000103073
21 *2591:A *323:8 7.40536e-05
22 *321:8 *323:8 0.000281831
23 *321:16 *323:8 0.000124702
24 *321:16 *344:76 6.46834e-05
25 *321:16 *344:84 1.54008e-05
26 *321:20 *326:21 0
27 *321:26 *344:12 0
28 *321:33 *327:45 0.00503475
29 *321:46 *327:45 0.00119864
30 *321:46 *327:56 0.00504472
31 *321:67 *2488:A 1.54556e-05
32 *321:67 *2490:A 4.77425e-05
33 *321:67 *2491:A 4.77425e-05
34 *321:67 *338:87 0
35 *321:67 *338:94 0
36 *321:67 *338:101 0
37 *321:67 *339:108 0
38 *321:67 *339:119 0
39 *321:69 *327:56 0.000670237
40 *321:69 *329:90 0.00178511
41 *321:73 *342:67 7.40536e-05
42 output_no[73] *321:39 7.44263e-05
43 output_no[90] *321:67 0
44 output_o[90] *321:67 0
45 *2409:C *321:8 0.000177652
46 *32:12 *321:69 0
47 *34:12 *321:69 0.00024574
48 *159:14 *321:69 0
49 *293:51 *321:26 0
50 *306:20 *321:20 0
51 *306:20 *321:33 0
52 *306:35 *321:33 0
53 *307:54 *321:46 0.00270871
54 *307:54 *321:69 0.00303187
55 *309:51 *321:33 0
56 *309:51 *321:46 0
57 *309:64 *321:69 0
58 *309:72 *321:69 0
59 *313:19 *321:16 8.01116e-05
60 *314:69 *321:69 0
61 *315:12 *321:20 0
62 *316:25 *321:20 0.00470975
63 *316:44 *321:20 0.000129897
64 *316:78 *321:69 0
65 *319:49 *321:20 0
66 *319:49 *321:33 0
67 *320:105 *321:69 0
*RES
1 *2405:Y *321:8 42.3278 
2 *321:8 *321:16 41.133 
3 *321:16 *321:18 20 
4 *321:18 *321:20 41.2 
5 *321:20 *321:26 40.3502 
6 *321:26 *2408:B 20 
7 *321:20 *321:33 40.7674 
8 *321:33 *321:39 40.3502 
9 *321:39 *2455:A 20 
10 *321:33 *321:46 41.2 
11 *321:46 *321:52 40.3502 
12 *321:52 *2489:A 20 
13 *321:52 *321:67 44.5114 
14 *321:67 *321:69 39.4696 
15 *321:69 *321:73 21.339 
16 *321:73 *2523:A 40 
17 *321:73 *2557:A 41.0918 
18 *321:16 *2591:A 40.3502 
*END

*D_NET *322 0.0637675
*CONN
*I *2407:B I *D sg13g2_nor2_1
*I *2556:A I *D sg13g2_nor2_1
*I *2522:A I *D sg13g2_nor2_1
*I *2488:A I *D sg13g2_nor2_1
*I *2454:A I *D sg13g2_nor2_1
*I *2590:A I *D sg13g2_nor2_1
*I *2406:Y O *D sg13g2_nand3b_1
*CAP
1 *2407:B 0
2 *2556:A 0.000500466
3 *2522:A 0
4 *2488:A 9.26455e-05
5 *2454:A 0
6 *2590:A 0.00016169
7 *2406:Y 0.000436873
8 *322:77 0.000589734
9 *322:73 0.00425996
10 *322:71 0.0042421
11 *322:56 0.000164061
12 *322:54 0.00383784
13 *322:47 7.97746e-05
14 *322:41 0.00723905
15 *322:39 0.00332144
16 *322:37 0.00107773
17 *322:31 0.00117396
18 *322:25 0.00222924
19 *322:8 0.00273157
20 *2488:A *334:66 0.000177127
21 *2488:A *338:87 0
22 *2488:A *339:101 0
23 *2556:A *2555:B 0
24 *2556:A *330:57 0.000274812
25 *2556:A *343:46 0
26 *2590:A *345:51 0
27 *2590:A *345:61 0
28 *322:25 *324:10 0
29 *322:25 *332:25 0
30 *322:25 *333:25 0.000696073
31 *322:25 *344:16 0.000793443
32 *322:25 *344:68 0
33 *322:37 *331:43 0.000307052
34 *322:37 *332:25 0.0016364
35 *322:37 *334:33 0
36 *322:41 *324:23 0.000342351
37 *322:41 *324:34 0.00615798
38 *322:41 *328:61 0.00535451
39 *322:41 *345:12 0.000539193
40 *322:54 *324:34 0.000279382
41 *322:54 *324:49 0.00592846
42 *322:54 *328:61 0.00118264
43 *322:54 *328:80 0.00017786
44 *322:71 *334:66 5.15366e-05
45 *322:73 *323:80 0
46 *322:73 *324:49 0
47 *322:73 *328:84 0
48 *322:73 *328:99 0.00489282
49 output_no[45] *2590:A 8.0017e-05
50 output_no[45] *322:25 0
51 output_no[52] *322:31 0
52 output_no[73] *322:47 0.000177497
53 output_o[45] *322:8 0
54 output_o[46] *322:25 0
55 output_o[53] *322:31 0
56 output_o[89] *2488:A 0.000124547
57 output_o[89] *322:71 0.000176083
58 *2407:A *322:37 7.30101e-05
59 *34:8 *2556:A 7.34778e-05
60 *150:10 *322:8 0
61 *160:12 *322:73 0.000508693
62 *281:124 *322:25 0
63 *281:128 *322:25 0
64 *283:161 *322:25 0
65 *285:45 *2590:A 0.000273854
66 *294:18 *322:25 0
67 *294:18 *322:37 0.00115004
68 *302:48 *322:37 0.000104117
69 *316:63 *322:54 0
70 *316:78 *322:54 0
71 *319:49 *322:41 0
72 *319:112 *2556:A 0
73 *320:105 *322:54 8.09822e-05
74 *321:67 *2488:A 1.54556e-05
*RES
1 *2406:Y *322:8 43.0694 
2 *322:8 *2590:A 41.8334 
3 *322:8 *322:25 41.8772 
4 *322:25 *322:31 40.8446 
5 *322:31 *322:37 32.5042 
6 *322:37 *322:39 20 
7 *322:39 *322:41 42.9304 
8 *322:41 *322:47 40.8446 
9 *322:47 *2454:A 20 
10 *322:41 *322:54 40.9837 
11 *322:54 *322:56 20 
12 *322:56 *2488:A 41.1639 
13 *322:56 *322:71 20.8446 
14 *322:71 *322:73 40.9837 
15 *322:73 *322:77 20.5974 
16 *322:77 *2522:A 40 
17 *322:77 *2556:A 44.4496 
18 *322:37 *2407:B 40 
*END

*D_NET *323 0.0555308
*CONN
*I *2559:A I *D sg13g2_nand2_1
*I *2525:A I *D sg13g2_nand2_1
*I *2491:A I *D sg13g2_nand2_1
*I *2457:A I *D sg13g2_nand2_1
*I *2412:B I *D sg13g2_nand2_1
*I *2593:A I *D sg13g2_nand2_1
*I *2409:Y O *D sg13g2_nor3_1
*CAP
1 *2559:A 0.000313375
2 *2525:A 6.52605e-05
3 *2491:A 0.000284488
4 *2457:A 0
5 *2412:B 0
6 *2593:A 3.11377e-05
7 *2409:Y 0.000307784
8 *323:84 0.000423626
9 *323:80 0.00503184
10 *323:78 0.00498685
11 *323:65 0.000477021
12 *323:61 0.00366727
13 *323:50 0.000406235
14 *323:42 0.00819815
15 *323:31 0.000281793
16 *323:23 0.00893086
17 *323:21 0.00452972
18 *323:8 0.000536758
19 *2491:A *338:94 0
20 *2491:A *338:101 0
21 *2525:A *324:82 7.30101e-05
22 *2559:A *2524:B 1.54008e-05
23 *2559:A *324:67 1.54008e-05
24 *2559:A *324:82 4.77425e-05
25 *2559:A *340:133 0
26 *2559:A *340:149 1.54008e-05
27 *2559:A *341:144 0
28 *2593:A *2593:B 0
29 *323:8 *344:84 0
30 *323:23 *325:25 0
31 *323:42 *324:34 0
32 *323:50 *324:42 0.000229033
33 *323:50 *336:77 0
34 *323:50 *336:84 0
35 *323:61 *328:84 0.00514831
36 *323:80 *342:59 0
37 *323:80 *343:65 0.000146301
38 *323:84 *324:82 0.000176083
39 output_no[106] *2525:A 0.000177497
40 output_no[106] *323:84 0.000155653
41 output_o[42] *323:8 0
42 output_o[42] *323:21 0
43 *2409:C *323:8 0.000124699
44 *2591:A *323:8 7.40536e-05
45 *22:8 *323:8 0
46 *160:12 *323:80 0.00109535
47 *162:10 *323:80 0
48 *272:43 *323:42 0
49 *272:43 *323:61 0.00179953
50 *277:61 *2593:A 4.77425e-05
51 *281:124 *323:21 0
52 *314:33 *323:23 0
53 *314:50 *323:23 0
54 *314:50 *323:42 0.00277436
55 *316:46 *323:23 0.00138937
56 *316:46 *323:42 0.0016407
57 *319:66 *323:42 0.000837174
58 *319:66 *323:61 0.000621573
59 *319:89 *323:61 0
60 *320:105 *323:80 0
61 *321:8 *323:8 0.000281831
62 *321:16 *323:8 0.000124702
63 *321:67 *2491:A 4.77425e-05
64 *322:73 *323:80 0
*RES
1 *2409:Y *323:8 43.0694 
2 *323:8 *2593:A 40.3193 
3 *323:8 *323:21 21.339 
4 *323:21 *323:23 40.7674 
5 *323:23 *323:31 42.1527 
6 *323:31 *2412:B 20 
7 *323:23 *323:42 42.951 
8 *323:42 *323:50 43.3269 
9 *323:50 *2457:A 20 
10 *323:42 *323:61 42.0858 
11 *323:61 *323:65 21.339 
12 *323:65 *2491:A 41.9055 
13 *323:65 *323:78 20 
14 *323:78 *323:80 42.7141 
15 *323:80 *323:84 20.8446 
16 *323:84 *2525:A 40.8446 
17 *323:84 *2559:A 42.7192 
*END

*D_NET *324 0.0704105
*CONN
*I *2490:A I *D sg13g2_nor2_1
*I *2558:A I *D sg13g2_nor2_1
*I *2524:A I *D sg13g2_nor2_1
*I *2456:A I *D sg13g2_nor2_1
*I *2411:B I *D sg13g2_nor2_1
*I *2592:A I *D sg13g2_nor2_1
*I *2410:Y O *D sg13g2_nand3b_1
*CAP
1 *2490:A 3.34444e-05
2 *2558:A 0
3 *2524:A 0
4 *2456:A 0
5 *2411:B 0
6 *2592:A 0
7 *2410:Y 0.000285399
8 *324:82 0.000176657
9 *324:67 0.000630959
10 *324:59 0.00384882
11 *324:57 0.00377467
12 *324:53 0.000572106
13 *324:49 0.00338211
14 *324:42 0.00018372
15 *324:34 0.00733176
16 *324:27 0
17 *324:23 0.00669302
18 *324:21 0.00279445
19 *324:10 0.000311266
20 *324:23 *325:25 0.00472591
21 *324:23 *326:21 0
22 *324:23 *345:12 0
23 *324:34 *325:25 0.000509493
24 *324:42 *337:111 0
25 *324:67 *340:118 0
26 *324:67 *340:133 0
27 *324:67 *343:57 0.000126392
28 *324:82 *340:133 0
29 *324:82 *341:144 4.77425e-05
30 *2525:A *324:82 7.30101e-05
31 *2559:A *324:67 1.54008e-05
32 *2559:A *324:82 4.77425e-05
33 *8:7 *324:57 0.000176083
34 *9:9 *324:59 0.00161933
35 *9:11 *324:59 0.00474581
36 *150:10 *324:10 0.00043679
37 *150:10 *324:21 7.44237e-05
38 *164:8 *324:67 0
39 *300:14 *324:59 0.00413152
40 *313:19 *324:10 8.01995e-05
41 *314:25 *324:23 0.00174945
42 *314:86 *324:59 0.00189369
43 *315:44 *324:59 0
44 *316:46 *324:34 0
45 *320:86 *324:34 0.000902563
46 *320:86 *324:49 0.00587553
47 *320:105 *324:49 0
48 *321:67 *2490:A 4.77425e-05
49 *322:25 *324:10 0
50 *322:41 *324:23 0.000342351
51 *322:41 *324:34 0.00615798
52 *322:54 *324:34 0.000279382
53 *322:54 *324:49 0.00592846
54 *322:73 *324:49 0
55 *323:42 *324:34 0
56 *323:50 *324:42 0.000229033
57 *323:84 *324:82 0.000176083
*RES
1 *2410:Y *324:10 42.6162 
2 *324:10 *2592:A 40 
3 *324:10 *324:21 20.3502 
4 *324:21 *324:23 31.2502 
5 *324:23 *324:27 40 
6 *324:27 *2411:B 20 
7 *324:23 *324:34 42.4978 
8 *324:34 *324:42 41.6274 
9 *324:42 *2456:A 20 
10 *324:34 *324:49 40.9837 
11 *324:49 *324:53 21.0918 
12 *324:53 *324:57 22.8222 
13 *324:57 *324:59 42.4978 
14 *324:59 *324:67 43.5741 
15 *324:67 *2524:A 20 
16 *324:67 *324:82 41.7304 
17 *324:82 *2558:A 20 
18 *324:53 *2490:A 40.3193 
*END

*D_NET *325 0.0686785
*CONN
*I *2561:A I *D sg13g2_nand2_1
*I *2527:A I *D sg13g2_nand2_1
*I *2493:A I *D sg13g2_nand2_1
*I *2459:A I *D sg13g2_nand2_1
*I *2416:B I *D sg13g2_nand2_1
*I *2595:A I *D sg13g2_nand2_1
*I *2413:Y O *D sg13g2_nor3_1
*CAP
1 *2561:A 0
2 *2527:A 0
3 *2493:A 0.000379511
4 *2459:A 8.2857e-05
5 *2416:B 0
6 *2595:A 0
7 *2413:Y 0.000381446
8 *325:131 0.000378761
9 *325:116 0.000560495
10 *325:108 0.00386792
11 *325:106 0.00383377
12 *325:91 0.0011525
13 *325:87 0.00108037
14 *325:75 0.00350905
15 *325:50 0.00773705
16 *325:35 0.00481902
17 *325:25 0.0046975
18 *325:23 0.00453843
19 *325:12 9.02446e-05
20 *325:8 0.000411866
21 *2459:A *337:134 0
22 *2493:A *338:101 0
23 *2493:A *338:108 0
24 *2493:A *339:126 0
25 *325:8 *344:90 0
26 *325:8 *344:117 0
27 *325:12 *345:76 4.77425e-05
28 *325:23 *345:76 9.699e-05
29 *325:35 *328:48 0
30 *325:50 *2419:B 4.77425e-05
31 *325:50 *2431:B 0.000208562
32 *325:50 *2437:B 0
33 *325:50 *329:47 0
34 *325:50 *334:50 0.000388839
35 *325:50 *336:20 0
36 *325:50 *337:28 0.000112226
37 *325:50 *337:60 0.000177097
38 *325:50 *337:67 0.000339556
39 *325:50 *337:74 0.000274412
40 *325:50 *337:82 0.00040409
41 *325:50 *337:89 0.000339441
42 *325:50 *337:96 0.000274182
43 *325:50 *337:104 0.00040409
44 *325:50 *337:111 0.000339096
45 *325:50 *337:118 0.000274555
46 *325:50 *337:134 0
47 *325:75 *2466:B 0
48 *325:75 *329:82 0.00367723
49 *325:75 *331:91 0.00145476
50 *325:75 *334:50 0.0011134
51 *325:75 *337:134 0
52 *325:75 *337:141 0
53 *325:75 *337:148 0
54 *325:87 *331:91 2.15168e-05
55 *325:87 *339:94 0.000144726
56 *325:87 *339:101 0.000209614
57 *325:91 *331:99 0.00114682
58 *325:91 *334:78 0.00108192
59 *325:106 *326:79 0
60 *325:108 *327:75 0.0056661
61 *325:108 *328:84 0.000275536
62 *325:108 *328:99 0
63 *325:116 *340:133 0
64 *325:116 *341:144 8.00842e-05
65 *325:131 *2560:A 8.01118e-05
66 *325:131 *2561:B 0.000124773
67 *325:131 *340:149 0
68 *325:131 *341:144 0.000209499
69 *325:131 *341:158 0.000111685
70 *325:131 *342:110 0.00022762
71 output_no[58] *325:35 0
72 output_no[60] *325:50 0
73 output_no[63] *325:50 0
74 output_no[65] *325:50 0.000111713
75 output_no[66] *325:50 0
76 output_no[75] *2459:A 1.63516e-05
77 output_no[75] *325:50 0
78 output_o[41] *325:8 0.000850345
79 output_o[59] *325:35 4.77702e-05
80 output_o[60] *325:50 4.75425e-05
81 output_o[65] *325:50 0
82 output_o[69] *325:50 4.75425e-05
83 output_o[72] *325:50 4.75425e-05
84 output_o[75] *325:50 4.75151e-05
85 output_o[78] *325:75 0
86 *2431:A *325:50 0
87 *2432:A *325:50 8.02267e-05
88 *9:88 *325:50 0
89 *22:12 *325:25 0.000145836
90 *31:12 *325:108 0.00167662
91 *74:8 *325:8 7.30101e-05
92 *165:8 *325:131 0.000177127
93 *272:22 *325:35 0.000112826
94 *272:22 *325:50 0
95 *272:41 *325:50 0
96 *277:69 *325:8 0
97 *278:136 *325:8 0.000124547
98 *286:40 *325:23 8.00491e-05
99 *301:8 *325:50 0.000208255
100 *301:10 *325:50 0.000338538
101 *301:12 *325:50 0.000274412
102 *301:20 *325:50 0
103 *301:34 *325:35 0
104 *302:29 *325:50 0
105 *302:31 *325:50 0
106 *303:52 *325:75 0.000144657
107 *306:28 *325:50 0
108 *313:60 *325:50 0
109 *314:25 *325:25 0
110 *316:46 *325:25 0.00191588
111 *319:89 *325:108 0
112 *323:23 *325:25 0
113 *324:23 *325:25 0.00472591
114 *324:34 *325:25 0.000509493
*RES
1 *2413:Y *325:8 44.0582 
2 *325:8 *325:12 20.3193 
3 *325:12 *2595:A 20 
4 *325:12 *325:23 40.7519 
5 *325:23 *325:25 45.526 
6 *325:25 *325:35 41.9467 
7 *325:35 *2416:B 20 
8 *325:35 *325:50 43.4042 
9 *325:50 *2459:A 21.0377 
10 *325:50 *325:75 34.0827 
11 *325:75 *325:87 44.0273 
12 *325:87 *325:91 27.6735 
13 *325:91 *2493:A 43.0179 
14 *325:91 *325:106 21.0918 
15 *325:106 *325:108 39.6859 
16 *325:108 *325:116 41.3802 
17 *325:116 *2527:A 20 
18 *325:116 *325:131 44.017 
19 *325:131 *2561:A 20 
*END

*D_NET *326 0.0640058
*CONN
*I *2560:A I *D sg13g2_nor2_1
*I *2526:A I *D sg13g2_nor2_1
*I *2492:A I *D sg13g2_nor2_1
*I *2458:A I *D sg13g2_nor2_1
*I *2415:B I *D sg13g2_nor2_1
*I *2594:A I *D sg13g2_nor2_1
*I *2414:Y O *D sg13g2_nand3b_1
*CAP
1 *2560:A 0.000225766
2 *2526:A 0.000172128
3 *2492:A 0
4 *2458:A 0.000440328
5 *2415:B 6.37612e-05
6 *2594:A 0
7 *2414:Y 0.000254191
8 *326:106 0.0011131
9 *326:100 0.000975405
10 *326:94 0.00198583
11 *326:90 0.00313252
12 *326:79 0.000303065
13 *326:73 0.00553586
14 *326:63 0.00391242
15 *326:46 0.00267083
16 *326:42 0.00428175
17 *326:25 0.00231347
18 *326:21 0.0041773
19 *326:19 0.00406537
20 *326:10 0.000254191
21 *2415:B *329:47 0
22 *2458:A *336:84 0
23 *2458:A *337:134 1.54008e-05
24 *2526:A *330:57 8.03692e-05
25 *2526:A *341:158 0
26 *2560:A *341:158 0.000112314
27 *2560:A *342:82 8.00842e-05
28 *2560:A *342:91 0.000160408
29 *2560:A *343:69 0
30 *326:21 *345:12 0
31 *326:25 *345:8 7.30101e-05
32 *326:42 *329:63 0.001669
33 *326:42 *331:43 0.00166801
34 *326:42 *331:62 0.000987866
35 *326:42 *332:25 0.00147373
36 *326:42 *333:25 0
37 *326:46 *329:63 8.02267e-05
38 *326:46 *331:62 0.00321973
39 *326:73 *329:63 0.000954512
40 *326:73 *329:82 0
41 *326:73 *332:65 0.00251181
42 *326:73 *332:67 0
43 *326:73 *333:38 0.00144065
44 *326:73 *333:55 0.00350188
45 *326:73 *333:59 0.00014514
46 *326:90 *329:96 0.000126013
47 *326:90 *331:120 0
48 *326:90 *332:67 0
49 *326:90 *333:59 0
50 *326:94 *329:98 0
51 *326:94 *331:120 0.00260941
52 *326:100 *340:84 0.000230373
53 *326:106 *342:59 0.000408061
54 *326:106 *342:82 0.000424519
55 output_no[43] *326:10 0.000539767
56 output_no[58] *2415:B 7.98582e-05
57 output_no[91] *326:79 0.000635873
58 output_no[97] *326:90 0.000116226
59 output_o[58] *326:42 0.00022762
60 output_o[92] *326:79 0
61 *32:12 *326:106 0.00109524
62 *204:12 *326:10 0
63 *275:36 *326:10 0
64 *277:32 *326:10 0.000228094
65 *282:152 *326:10 8.03146e-05
66 *287:31 *326:21 0.0013592
67 *287:52 *326:21 0.000146301
68 *294:234 *326:10 0.000332997
69 *301:34 *2415:B 0.000112228
70 *314:25 *326:21 0
71 *316:25 *326:21 0
72 *316:44 *326:21 0
73 *319:49 *326:21 0.000769818
74 *319:97 *326:100 0.000227773
75 *320:109 *326:100 0.000124547
76 *321:20 *326:21 0
77 *324:23 *326:21 0
78 *325:106 *326:79 0
79 *325:131 *2560:A 8.01118e-05
*RES
1 *2414:Y *326:10 43.605 
2 *326:10 *2594:A 40 
3 *326:10 *326:19 20 
4 *326:19 *326:21 38.3881 
5 *326:21 *326:25 20.8446 
6 *326:25 *2415:B 40.7519 
7 *326:25 *326:42 44.5346 
8 *326:42 *326:46 41.5167 
9 *326:46 *2458:A 43.2136 
10 *326:46 *326:63 20.5974 
11 *326:63 *326:73 43.6514 
12 *326:73 *326:79 43.3166 
13 *326:79 *2492:A 20 
14 *326:73 *326:90 36.5212 
15 *326:90 *326:94 37.407 
16 *326:94 *326:100 42.575 
17 *326:100 *326:106 28.24 
18 *326:106 *2526:A 41.3802 
19 *326:106 *2560:A 42.6162 
*END

*D_NET *327 0.0901915
*CONN
*I *2420:B I *D sg13g2_nand2_1
*I *2563:A I *D sg13g2_nand2_1
*I *2529:A I *D sg13g2_nand2_1
*I *2495:A I *D sg13g2_nand2_1
*I *2461:A I *D sg13g2_nand2_1
*I *2597:A I *D sg13g2_nand2_1
*I *2417:Y O *D sg13g2_nor4_1
*CAP
1 *2420:B 0.000105946
2 *2563:A 0
3 *2529:A 0.000107303
4 *2495:A 0
5 *2461:A 0
6 *2597:A 0.000229136
7 *2417:Y 0.00062391
8 *327:79 0.000252595
9 *327:75 0.00350132
10 *327:73 0.00383295
11 *327:60 0.000476919
12 *327:56 0.00412241
13 *327:49 0
14 *327:45 0.00750152
15 *327:43 0.0033791
16 *327:41 0.000491208
17 *327:37 0.00373413
18 *327:35 0.00457547
19 *327:31 0.00179421
20 *327:25 0.00255694
21 *327:8 0.00284237
22 *2420:B *329:47 4.77702e-05
23 *2420:B *330:24 0
24 *2529:A *341:178 0
25 *2597:A *344:147 0
26 *2597:A *344:157 0
27 *327:8 *345:174 0.000641371
28 *327:41 *330:24 0
29 *327:41 *341:10 0.00064437
30 *327:73 *2496:A 0
31 *327:73 *328:92 0.00038223
32 *327:73 *338:108 0
33 *327:73 *338:115 0
34 *327:79 *341:178 0
35 output_no[108] *2529:A 0
36 output_no[108] *327:79 0
37 output_no[92] *327:73 4.77699e-05
38 output_o[30] *327:8 0
39 output_o[40] *327:31 0
40 *2350:A *327:31 0
41 *2390:C *327:31 0.000748856
42 *3:112 *327:8 7.51285e-05
43 *3:196 *327:31 0
44 *31:12 *327:75 0
45 *35:14 *327:75 0.00108695
46 *38:8 *2529:A 0.000177891
47 *211:8 *327:8 7.30101e-05
48 *272:41 *2420:B 2.18755e-05
49 *280:18 *327:25 0.000436764
50 *280:40 *327:25 0.00314497
51 *280:40 *327:31 0
52 *281:86 *327:31 0.000521796
53 *283:34 *327:8 0
54 *285:10 *327:8 0.000231339
55 *286:38 *327:8 0
56 *286:38 *327:25 0.00351659
57 *288:14 *327:35 0.00140623
58 *292:10 *327:41 0.000384132
59 *294:204 *327:31 0.000592221
60 *299:30 *2597:A 0.000273064
61 *299:30 *327:25 8.02269e-05
62 *301:12 *2420:B 0
63 *307:54 *327:56 0
64 *308:24 *327:37 0.00432663
65 *314:58 *327:45 0
66 *314:58 *327:56 0
67 *314:69 *327:56 0
68 *317:27 *327:37 0.00462522
69 *319:49 *327:45 0.00444208
70 *319:89 *327:75 0.00452118
71 *321:33 *327:45 0.00503475
72 *321:46 *327:45 0.00119864
73 *321:46 *327:56 0.00504472
74 *321:69 *327:56 0.000670237
75 *325:108 *327:75 0.0056661
*RES
1 *2417:Y *327:8 45.7886 
2 *327:8 *2597:A 42.1836 
3 *327:8 *327:25 44.926 
4 *327:25 *327:31 46.7774 
5 *327:31 *327:35 11.9171 
6 *327:35 *327:37 42.4978 
7 *327:37 *327:41 24.3054 
8 *327:41 *327:43 20 
9 *327:43 *327:45 40.9837 
10 *327:45 *327:49 40 
11 *327:49 *2461:A 20 
12 *327:45 *327:56 41.2 
13 *327:56 *327:60 40 
14 *327:60 *2495:A 20 
15 *327:60 *327:73 44.0376 
16 *327:73 *327:75 42.0652 
17 *327:75 *327:79 21.0918 
18 *327:79 *2529:A 41.0918 
19 *327:79 *2563:A 40 
20 *327:41 *2420:B 40.9167 
*END

*D_NET *328 0.0952253
*CONN
*I *2596:A I *D sg13g2_nor2_1
*I *2562:A I *D sg13g2_nor2_1
*I *2528:A I *D sg13g2_nor2_1
*I *2494:A I *D sg13g2_nor2_1
*I *2460:A I *D sg13g2_nor2_1
*I *2419:B I *D sg13g2_nor2_1
*I *2418:X O *D sg13g2_or4_1
*CAP
1 *2596:A 0.000113314
2 *2562:A 0.000494061
3 *2528:A 0
4 *2494:A 0
5 *2460:A 0
6 *2419:B 2.60565e-05
7 *2418:X 0.000348309
8 *328:145 0.00208229
9 *328:139 0.0022315
10 *328:133 0.0016923
11 *328:103 0.000619624
12 *328:99 0.00395871
13 *328:92 0.000269731
14 *328:84 0.00751016
15 *328:80 0.00371992
16 *328:67 4.9948e-05
17 *328:61 0.00398668
18 *328:59 0.0036241
19 *328:48 0.00102779
20 *328:44 0.00533289
21 *328:42 0.00433115
22 *328:40 0.00137841
23 *328:36 0.00187897
24 *328:28 0.00266584
25 *328:20 0.0032315
26 *328:10 0.0028443
27 *2562:A *330:57 0.000242328
28 *2562:A *340:149 7.30101e-05
29 *2562:A *343:84 0
30 *328:28 *344:117 0.000144284
31 *328:28 *344:125 0
32 *328:28 *344:133 0
33 *328:28 *345:76 0
34 *328:48 *341:10 0
35 *328:92 *339:126 0
36 *328:92 *339:133 0
37 *328:133 *344:157 0
38 *328:145 *345:119 0
39 output_no[23] *328:139 0
40 output_no[31] *328:20 0.000335378
41 output_no[40] *328:36 0
42 output_no[42] *328:40 0
43 output_no[76] *328:67 0.00012596
44 output_no[92] *328:92 0.000124547
45 output_o[17] *328:145 0
46 output_o[29] *328:133 0
47 output_o[41] *328:36 0
48 output_o[42] *328:40 0
49 *2316:C *328:20 0
50 *2331:A *328:20 0.000240377
51 *2343:A *328:28 0
52 *2355:B *328:40 0
53 *2578:A *2596:A 0.000176625
54 *3:80 *328:10 0
55 *7:21 *328:44 0
56 *7:23 *328:44 0
57 *8:101 *328:48 0
58 *22:12 *328:133 0.00204664
59 *31:12 *328:99 0.00201533
60 *33:10 *328:28 0
61 *44:22 *328:145 0.000391763
62 *105:8 *328:28 0
63 *160:12 *328:99 0
64 *204:12 *328:40 0
65 *271:12 *328:48 0
66 *272:41 *2419:B 4.77425e-05
67 *275:75 *328:20 0.000274785
68 *275:83 *328:133 0
69 *278:67 *328:10 7.92265e-05
70 *278:84 *328:10 0
71 *280:10 *328:20 0
72 *281:84 *328:28 0.00101723
73 *281:124 *328:36 0.00037185
74 *283:61 *328:139 0.000176083
75 *283:106 *328:36 0
76 *283:110 *328:40 0
77 *284:143 *328:40 0
78 *284:171 *328:44 0
79 *286:38 *328:28 0.00357416
80 *286:38 *328:36 0.000112426
81 *286:40 *328:36 0
82 *290:36 *328:10 0.000541219
83 *290:44 *328:20 0
84 *293:24 *328:48 0
85 *296:36 *328:145 0.00114978
86 *298:12 *328:133 0
87 *299:56 *328:28 0.00166617
88 *302:149 *328:48 0.000126047
89 *305:12 *328:44 0
90 *305:20 *328:44 0
91 *306:105 *2596:A 0
92 *309:12 *328:44 0
93 *314:58 *328:61 0
94 *316:63 *328:61 0.00237932
95 *316:63 *328:80 0.000164141
96 *317:37 *328:44 0.00165398
97 *319:41 *328:44 0
98 *319:49 *328:61 0
99 *319:66 *328:84 0.00459912
100 *319:87 *328:84 0.000246032
101 *319:89 *328:84 0
102 *320:10 *328:10 0.000124547
103 *320:35 *328:10 0.000125963
104 *322:41 *328:61 0.00535451
105 *322:54 *328:61 0.00118264
106 *322:54 *328:80 0.00017786
107 *322:73 *328:84 0
108 *322:73 *328:99 0.00489282
109 *323:61 *328:84 0.00514831
110 *325:35 *328:48 0
111 *325:50 *2419:B 4.77425e-05
112 *325:108 *328:84 0.000275536
113 *325:108 *328:99 0
114 *327:73 *328:92 0.00038223
*RES
1 *2418:X *328:10 43.605 
2 *328:10 *328:20 49.4863 
3 *328:20 *328:28 45.647 
4 *328:28 *328:36 44.6247 
5 *328:36 *328:40 30.2382 
6 *328:40 *328:42 20 
7 *328:42 *328:44 45.0934 
8 *328:44 *328:48 28.5078 
9 *328:48 *2419:B 40.3193 
10 *328:48 *328:59 20 
11 *328:59 *328:61 43.1467 
12 *328:61 *328:67 40.5974 
13 *328:67 *2460:A 20 
14 *328:61 *328:80 42.7707 
15 *328:80 *328:84 41.1176 
16 *328:84 *328:92 42.5853 
17 *328:92 *2494:A 20 
18 *328:84 *328:99 40.1185 
19 *328:99 *328:103 20.8446 
20 *328:103 *2528:A 40 
21 *328:103 *2562:A 44.6556 
22 *328:10 *328:133 35.5942 
23 *328:133 *328:139 42.0806 
24 *328:139 *328:145 41.1562 
25 *328:145 *2596:A 41.1845 
*END

*D_NET *329 0.067568
*CONN
*I *2424:B I *D sg13g2_nand2_1
*I *2497:A I *D sg13g2_nand2_1
*I *2565:A I *D sg13g2_nand2_1
*I *2531:A I *D sg13g2_nand2_1
*I *2463:A I *D sg13g2_nand2_1
*I *2599:A I *D sg13g2_nand2_1
*I *2421:Y O *D sg13g2_nor4_1
*CAP
1 *2424:B 3.02081e-05
2 *2497:A 4.38486e-05
3 *2565:A 0.000247253
4 *2531:A 4.08847e-05
5 *2463:A 0
6 *2599:A 0
7 *2421:Y 0.000407366
8 *329:104 0.000614735
9 *329:98 0.00325309
10 *329:96 0.00342307
11 *329:90 0.00165333
12 *329:86 0.00149169
13 *329:82 0.00385094
14 *329:71 0.000414184
15 *329:63 0.00767702
16 *329:55 0.00442332
17 *329:47 0.00559318
18 *329:12 0.00491113
19 *329:8 0.000475859
20 *2565:A *340:171 0
21 *2565:A *341:188 0.000241955
22 *329:47 *2600:A 8.00842e-05
23 *329:47 *330:8 4.75166e-05
24 *329:47 *334:16 4.77702e-05
25 *329:47 *334:29 0.000193425
26 *329:47 *341:10 0
27 *329:47 *345:32 0
28 *329:55 *2427:B 0.000144657
29 *329:55 *331:51 8.02269e-05
30 *329:55 *333:31 0
31 *329:63 *331:62 0
32 *329:63 *333:25 0.000144998
33 *329:63 *333:38 0.00466955
34 *329:71 *336:111 0
35 *329:82 *331:62 0.000369568
36 *329:82 *331:91 0
37 *329:82 *331:99 0.00163102
38 *329:82 *332:65 0.00102009
39 *329:82 *332:67 0.00337876
40 *329:86 *2496:A 0.00012757
41 *329:98 *331:120 0
42 *329:98 *332:92 0.00131218
43 *329:98 *334:97 0.00277158
44 *329:104 *2564:A 0.000229687
45 *329:104 *330:57 0.00012559
46 output_no[109] *329:104 0
47 output_no[51] *329:47 0
48 output_no[54] *329:47 0
49 output_no[56] *329:47 0
50 output_no[58] *329:47 0
51 output_no[77] *329:71 0.000277667
52 output_o[110] *2565:A 8.00842e-05
53 output_o[48] *329:47 0
54 output_o[51] *329:47 0.000111828
55 output_o[54] *329:47 4.75151e-05
56 output_o[98] *329:96 0
57 *2288:B *329:47 4.77702e-05
58 *2328:A *329:47 0
59 *2371:B *329:47 0.000101532
60 *2376:A *329:47 0
61 *2388:B *329:47 0.000112343
62 *2400:B *329:47 8.01116e-05
63 *2407:A *329:47 4.79124e-05
64 *2415:B *329:47 0
65 *2420:B *329:47 4.77702e-05
66 *2571:C *329:47 0.000112648
67 *3:345 *329:47 0
68 *10:116 *329:47 0
69 *10:116 *329:55 0
70 *10:122 *329:47 0
71 *161:12 *329:8 0
72 *167:10 *329:104 0
73 *266:12 *329:8 0
74 *272:22 *329:47 0.000617648
75 *272:41 *329:47 0.000177442
76 *281:158 *329:47 0.000175836
77 *282:152 *329:8 0
78 *285:73 *329:47 0.000175913
79 *287:39 *329:47 0.000176252
80 *293:12 *329:47 0
81 *294:10 *329:47 0
82 *294:34 *329:47 0.000112684
83 *294:38 *329:47 0.000257993
84 *294:42 *329:47 0.000565092
85 *301:8 *329:55 0
86 *301:10 *329:55 0
87 *301:12 *329:47 0
88 *301:44 *329:47 3.96571e-05
89 *301:51 *329:47 0
90 *301:53 *329:47 0
91 *301:55 *329:47 0
92 *301:57 *329:47 0
93 *301:59 *329:47 0
94 *301:61 *329:47 0
95 *301:72 *329:47 0
96 *301:74 *329:47 0
97 *302:75 *329:47 0
98 *302:77 *329:47 0
99 *302:79 *329:47 0
100 *302:81 *329:47 0
101 *302:83 *329:47 0
102 *302:85 *329:47 0
103 *302:93 *329:47 0
104 *303:73 *329:104 0.000593257
105 *305:38 *329:96 2.16263e-05
106 *307:18 *329:47 8.01995e-05
107 *313:19 *329:47 0
108 *314:69 *329:90 0
109 *316:31 *329:47 4.77699e-05
110 *321:69 *329:90 0.00178511
111 *325:50 *329:47 0
112 *325:75 *329:82 0.00367723
113 *326:42 *329:63 0.001669
114 *326:46 *329:63 8.02267e-05
115 *326:73 *329:63 0.000954512
116 *326:73 *329:82 0
117 *326:90 *329:96 0.000126013
118 *326:94 *329:98 0
*RES
1 *2421:Y *329:8 43.0694 
2 *329:8 *329:12 20.5356 
3 *329:12 *2599:A 20 
4 *329:12 *329:47 48.0804 
5 *329:47 *329:55 45.9534 
6 *329:55 *329:63 39.6241 
7 *329:63 *329:71 43.3269 
8 *329:71 *2463:A 20 
9 *329:63 *329:82 40.788 
10 *329:82 *329:86 22.3278 
11 *329:86 *329:90 31.7832 
12 *329:90 *329:96 43.5638 
13 *329:96 *329:98 31.2502 
14 *329:98 *329:104 43.5638 
15 *329:104 *2531:A 20.3193 
16 *329:104 *2565:A 22.8531 
17 *329:86 *2497:A 40.3193 
18 *329:47 *2424:B 20.3502 
*END

*D_NET *330 0.0729497
*CONN
*I *2598:A I *D sg13g2_nor2_1
*I *2462:A I *D sg13g2_nor2_1
*I *2496:A I *D sg13g2_nor2_1
*I *2564:A I *D sg13g2_nor2_1
*I *2530:A I *D sg13g2_nor2_1
*I *2423:B I *D sg13g2_nor2_1
*I *2422:Y O *D sg13g2_nand3b_1
*CAP
1 *2598:A 0.000109259
2 *2462:A 0.000529855
3 *2496:A 0.000331046
4 *2564:A 5.42268e-05
5 *2530:A 0
6 *2423:B 0
7 *2422:Y 2.67539e-05
8 *330:57 0.00237198
9 *330:51 0.00247712
10 *330:45 0.00172218
11 *330:41 0.00209395
12 *330:37 0.00377055
13 *330:35 0.00357046
14 *330:33 0.000529855
15 *330:31 0.00309313
16 *330:24 0.000574044
17 *330:14 0.00678629
18 *330:12 0.00330489
19 *330:8 0.00032179
20 *2598:A *2600:A 0.000112343
21 *2598:A *331:10 0.000103582
22 *2598:A *345:34 0
23 *330:8 *2600:A 4.75166e-05
24 *330:12 *331:10 0.000697873
25 *330:24 *2427:B 0
26 *330:24 *339:8 0
27 *330:37 *339:12 0.0010204
28 *330:37 *341:14 0.00614148
29 *330:57 *2555:B 0.000112791
30 *330:57 *2561:B 0.000112561
31 *330:57 *340:55 0.000274527
32 *330:57 *340:62 0.000258366
33 *330:57 *340:69 0.000581868
34 *330:57 *340:84 0.000226812
35 *330:57 *340:103 0
36 *330:57 *340:118 0.000176654
37 *330:57 *340:133 0.000194213
38 *330:57 *340:149 0
39 *330:57 *340:164 0.000112648
40 *330:57 *341:104 0
41 *330:57 *341:119 0
42 *330:57 *341:158 0
43 *330:57 *342:10 0
44 *330:57 *342:82 0
45 *330:57 *343:57 0
46 *330:57 *343:76 0
47 output_no[109] *2564:A 0.000208949
48 output_no[109] *330:57 0.000180021
49 output_no[61] *330:24 0.000176637
50 *2420:B *330:24 0
51 *2520:A *330:57 4.79124e-05
52 *2526:A *330:57 8.03692e-05
53 *2556:A *330:57 0.000274812
54 *2562:A *330:57 0.000242328
55 *8:125 *330:45 0.002962
56 *9:11 *330:45 0.00296395
57 *9:103 *330:57 4.63449e-05
58 *10:34 *330:57 0
59 *166:10 *330:57 0
60 *171:10 *2598:A 0.000124862
61 *171:10 *330:12 0.000694454
62 *272:41 *330:24 0
63 *300:14 *330:37 0
64 *300:20 *330:51 0
65 *302:14 *330:24 0
66 *307:10 *330:14 0
67 *307:25 *330:14 0
68 *309:76 *330:57 0
69 *311:18 *330:14 0.00369073
70 *311:18 *330:31 0.00266721
71 *311:31 *330:31 0.00354361
72 *311:77 *330:57 0
73 *312:18 *330:14 0.00359393
74 *312:18 *330:31 0.00271645
75 *312:33 *330:31 0.00349363
76 *313:50 *330:24 0.00022912
77 *313:99 *330:51 0
78 *315:44 *330:37 0.00264106
79 *320:45 *330:14 0
80 *327:41 *330:24 0
81 *327:73 *2496:A 0
82 *329:47 *330:8 4.75166e-05
83 *329:86 *2496:A 0.00012757
84 *329:104 *2564:A 0.000229687
85 *329:104 *330:57 0.00012559
*RES
1 *2422:Y *330:8 40.3193 
2 *330:8 *330:12 23.3166 
3 *330:12 *330:14 36.0088 
4 *330:14 *330:24 44.9749 
5 *330:24 *2423:B 20 
6 *330:14 *330:31 40.9837 
7 *330:31 *330:33 20 
8 *330:33 *330:35 20 
9 *330:35 *330:37 40.9837 
10 *330:37 *330:41 21.339 
11 *330:41 *330:45 39.7863 
12 *330:45 *330:51 41.0918 
13 *330:51 *330:57 44.3698 
14 *330:57 *2530:A 40 
15 *330:57 *2564:A 41.0918 
16 *330:41 *2496:A 42.7501 
17 *330:33 *2462:A 43.5638 
18 *330:8 *2598:A 41.3493 
*END

*D_NET *331 0.0702696
*CONN
*I *2533:A I *D sg13g2_nand2_1
*I *2567:A I *D sg13g2_nand2_1
*I *2499:A I *D sg13g2_nand2_1
*I *2465:A I *D sg13g2_nand2_1
*I *2428:B I *D sg13g2_nand2_1
*I *2601:A I *D sg13g2_nand2_1
*I *2425:Y O *D sg13g2_nor4_1
*CAP
1 *2533:A 3.34444e-05
2 *2567:A 7.28266e-05
3 *2499:A 0.000227707
4 *2465:A 0.000421098
5 *2428:B 0
6 *2601:A 9.40125e-05
7 *2425:Y 0.000629931
8 *331:134 0.000544959
9 *331:124 0.000552171
10 *331:120 0.00359756
11 *331:114 0.00367439
12 *331:99 0.00178442
13 *331:91 0.00416474
14 *331:68 0.00336187
15 *331:62 0.00465092
16 *331:51 0.000290569
17 *331:43 0.00610232
18 *331:39 0.00355956
19 *331:12 0.00228341
20 *331:10 0.000629931
21 *2465:A *2466:B 0
22 *2465:A *2467:B 0
23 *2465:A *334:58 8.00506e-05
24 *2465:A *336:111 0
25 *2499:A *2499:B 0
26 *2499:A *332:73 0.000281461
27 *2533:A *343:112 4.77425e-05
28 *2601:A *344:37 0.000135823
29 *331:39 *2603:A 4.77699e-05
30 *331:39 *2603:B 0
31 *331:39 *334:33 0.00182786
32 *331:39 *344:37 0.00128483
33 *331:43 *332:25 0
34 *331:43 *334:33 0.00244001
35 *331:62 *334:33 0.000385911
36 *331:62 *334:50 0.000209816
37 *331:91 *334:66 0
38 *331:91 *338:12 8.00842e-05
39 *331:91 *339:20 0.000176252
40 *331:91 *339:27 0.00027467
41 *331:91 *339:35 0.000371837
42 *331:91 *339:42 0.000339556
43 *331:91 *339:49 0.00027444
44 *331:91 *339:57 0
45 *331:91 *339:64 0
46 *331:91 *339:71 0
47 *331:91 *339:94 0.000371137
48 *331:99 *332:67 0
49 *331:99 *333:76 0.000112648
50 *331:99 *334:78 0.000176396
51 *331:99 *334:93 4.77425e-05
52 *331:99 *339:150 0.0001122
53 *331:114 *332:73 0.00015461
54 *331:120 *2558:B 0
55 *331:120 *332:80 0.00455429
56 *331:120 *333:88 0.000598615
57 *331:120 *341:144 0.000144956
58 *331:120 *341:178 0.000402738
59 *331:120 *342:129 0
60 *331:120 *343:112 0.000305966
61 *331:134 *340:190 7.45103e-05
62 *331:134 *343:127 7.30101e-05
63 output_no[62] *331:51 0.000383585
64 output_no[78] *2465:A 0
65 output_no[95] *2499:A 4.77425e-05
66 output_o[110] *331:124 0.000126047
67 output_o[110] *331:134 0.000176399
68 output_o[47] *331:10 0
69 output_o[53] *331:39 8.00842e-05
70 output_o[56] *331:39 0.000124699
71 output_o[62] *331:51 0
72 output_o[79] *331:91 0
73 output_o[81] *331:91 4.75425e-05
74 output_o[84] *331:91 4.75425e-05
75 *2425:D *331:10 0.00020964
76 *2539:A *331:120 0.000242138
77 *2598:A *331:10 0.000103582
78 *39:10 *2567:A 8.01116e-05
79 *160:12 *331:134 0
80 *162:10 *331:134 0.000537761
81 *167:10 *331:124 0
82 *167:10 *331:134 0
83 *168:10 *2567:A 0.000112426
84 *171:10 *331:10 0
85 *275:26 *331:10 0.000124547
86 *281:158 *331:10 0.000227935
87 *294:18 *331:39 0.00113242
88 *294:26 *331:10 0
89 *295:10 *331:10 0.000208824
90 *295:129 *331:10 0
91 *301:55 *331:39 0
92 *301:57 *331:39 0
93 *301:59 *331:39 0
94 *301:61 *331:39 0
95 *301:72 *331:39 0
96 *302:73 *331:39 0
97 *313:85 *2499:A 0
98 *322:37 *331:43 0.000307052
99 *325:75 *331:91 0.00145476
100 *325:87 *331:91 2.15168e-05
101 *325:91 *331:99 0.00114682
102 *326:42 *331:43 0.00166801
103 *326:42 *331:62 0.000987866
104 *326:46 *331:62 0.00321973
105 *326:90 *331:120 0
106 *326:94 *331:120 0.00260941
107 *329:55 *331:51 8.02269e-05
108 *329:63 *331:62 0
109 *329:82 *331:62 0.000369568
110 *329:82 *331:91 0
111 *329:82 *331:99 0.00163102
112 *329:98 *331:120 0
113 *330:12 *331:10 0.000697873
*RES
1 *2425:Y *331:10 46.695 
2 *331:10 *331:12 20 
3 *331:12 *2601:A 20.9141 
4 *331:12 *331:39 44.6891 
5 *331:39 *331:43 36.3255 
6 *331:43 *331:51 42.6162 
7 *331:51 *2428:B 20 
8 *331:43 *331:62 42.0858 
9 *331:62 *331:68 21.6274 
10 *331:68 *2465:A 43.2754 
11 *331:68 *331:91 46.2713 
12 *331:91 *331:99 35.2646 
13 *331:99 *2499:A 42.1527 
14 *331:99 *331:114 21.0918 
15 *331:114 *331:120 41.2206 
16 *331:120 *331:124 20.5974 
17 *331:124 *331:134 44.7586 
18 *331:134 *2567:A 40.7519 
19 *331:124 *2533:A 40.3193 
*END

*D_NET *332 0.0676724
*CONN
*I *2566:A I *D sg13g2_nor2_1
*I *2532:A I *D sg13g2_nor2_1
*I *2498:A I *D sg13g2_nor2_1
*I *2464:A I *D sg13g2_nor2_1
*I *2427:B I *D sg13g2_nor2_1
*I *2600:A I *D sg13g2_nor2_1
*I *2426:Y O *D sg13g2_nand3b_1
*CAP
1 *2566:A 7.39084e-05
2 *2532:A 0.000454004
3 *2498:A 0
4 *2464:A 0.000329182
5 *2427:B 0.000524447
6 *2600:A 0.000237088
7 *2426:Y 0.000287303
8 *332:92 0.00171835
9 *332:86 0.00125128
10 *332:80 0.00249013
11 *332:73 0.000115158
12 *332:67 0.00487564
13 *332:65 0.00390047
14 *332:50 0.00204208
15 *332:44 0.00429091
16 *332:42 0.00423601
17 *332:27 0.000613158
18 *332:25 0.00313706
19 *332:23 0.00349227
20 *332:10 0.000879597
21 *2532:A *2532:B 8.03692e-05
22 *2532:A *2535:B 0
23 *2532:A *342:148 0
24 *2566:A *2534:B 0.0001122
25 *2600:A *345:32 0
26 *332:25 *333:25 0.00426252
27 *332:44 *333:25 0
28 *332:44 *333:38 0
29 *332:67 *333:59 0.00234867
30 *332:67 *333:76 0.000274297
31 *332:80 *333:76 0.00452932
32 *332:86 *333:82 0.000124547
33 *332:92 *333:88 0.00176554
34 *332:92 *334:97 0
35 *332:92 *334:105 0
36 output_no[110] *332:92 0
37 output_no[47] *332:23 0
38 output_no[61] *332:42 0
39 output_no[77] *332:50 0
40 output_no[94] *332:73 0.000436071
41 output_o[106] *332:86 0.000176083
42 output_o[48] *332:23 0
43 output_o[62] *332:42 0
44 output_o[78] *332:50 0
45 *2422:A_N *332:10 0.000176083
46 *2427:A *2427:B 0
47 *2499:A *332:73 0.000281461
48 *2598:A *2600:A 0.000112343
49 *10:116 *2427:B 0
50 *39:10 *2532:A 0
51 *167:16 *332:92 0.00037185
52 *171:10 *332:23 0
53 *281:158 *2600:A 0.000112198
54 *294:18 *332:25 0.00124673
55 *294:26 *332:23 0
56 *302:27 *2427:B 0
57 *322:25 *332:25 0
58 *322:37 *332:25 0.0016364
59 *326:42 *332:25 0.00147373
60 *326:73 *332:65 0.00251181
61 *326:73 *332:67 0
62 *326:90 *332:67 0
63 *329:47 *2600:A 8.00842e-05
64 *329:55 *2427:B 0.000144657
65 *329:82 *332:65 0.00102009
66 *329:82 *332:67 0.00337876
67 *329:98 *332:92 0.00131218
68 *330:8 *2600:A 4.75166e-05
69 *330:24 *2427:B 0
70 *331:43 *332:25 0
71 *331:99 *332:67 0
72 *331:114 *332:73 0.00015461
73 *331:120 *332:80 0.00455429
*RES
1 *2426:Y *332:10 42.3999 
2 *332:10 *2600:A 42.266 
3 *332:10 *332:23 22.575 
4 *332:23 *332:25 36.0088 
5 *332:25 *332:27 20 
6 *332:27 *2427:B 44.0376 
7 *332:27 *332:42 20.8446 
8 *332:42 *332:44 41.4163 
9 *332:44 *332:50 21.4111 
10 *332:50 *2464:A 42.3278 
11 *332:50 *332:65 37.1083 
12 *332:65 *332:67 26.2753 
13 *332:67 *332:73 42.0806 
14 *332:73 *2498:A 20 
15 *332:67 *332:80 30.6013 
16 *332:80 *332:86 40.8446 
17 *332:86 *332:92 33.6166 
18 *332:92 *2532:A 43.3681 
19 *332:92 *2566:A 40.7519 
*END

*D_NET *333 0.0640627
*CONN
*I *2569:A I *D sg13g2_nand2_1
*I *2535:A I *D sg13g2_nand2_1
*I *2501:A I *D sg13g2_nand2_1
*I *2467:A I *D sg13g2_nand2_1
*I *2432:B I *D sg13g2_nand2_1
*I *2603:A I *D sg13g2_nand2_1
*I *2429:Y O *D sg13g2_nor2b_1
*CAP
1 *2569:A 0
2 *2535:A 0
3 *2501:A 0.000190529
4 *2467:A 0
5 *2432:B 0
6 *2603:A 2.96303e-05
7 *2429:Y 0.000353891
8 *333:109 0.00051126
9 *333:90 0.00051126
10 *333:88 0.00144812
11 *333:82 0.00151102
12 *333:76 0.00298177
13 *333:74 0.00291887
14 *333:63 0.000269636
15 *333:59 0.00151453
16 *333:55 0.00342779
17 *333:44 0.000497484
18 *333:38 0.00655574
19 *333:31 0.000385158
20 *333:25 0.00730824
21 *333:23 0.00304127
22 *333:10 0.000567595
23 *2603:A *2603:B 0
24 *333:23 *344:22 0
25 *333:25 *344:16 0
26 *333:76 *334:93 0
27 *333:76 *339:150 0.0001122
28 *333:76 *341:37 0
29 *333:76 *341:44 0
30 *333:76 *341:57 0
31 *333:76 *341:68 0
32 *333:76 *341:83 0
33 *333:76 *341:129 0
34 *333:76 *343:14 0.000306896
35 *333:76 *343:21 0.000596929
36 *333:76 *343:29 0
37 *333:88 *334:105 0.00054099
38 *333:109 *2535:B 0
39 *333:109 *2569:B 9.67976e-05
40 *333:109 *342:148 0.000256786
41 *333:109 *343:127 8.01995e-05
42 *333:109 *343:142 0.000112418
43 output_no[111] *333:109 7.94445e-05
44 output_no[62] *333:31 0
45 output_no[63] *333:31 0
46 output_no[78] *333:44 0
47 output_no[87] *333:55 0.000126358
48 output_o[105] *333:76 4.75425e-05
49 output_o[111] *333:88 0
50 output_o[112] *333:109 0.000176083
51 output_o[51] *333:10 0.000437267
52 output_o[51] *333:23 0
53 output_o[63] *333:31 0
54 output_o[79] *333:44 0
55 output_o[88] *333:55 0
56 output_o[95] *333:76 0.000242213
57 *2539:A *333:88 0.000533559
58 *35:10 *333:76 0
59 *35:10 *333:82 0.000176239
60 *40:10 *333:109 0.00011101
61 *45:10 *333:10 0.000798178
62 *168:10 *333:109 0.000176143
63 *301:72 *2603:A 0
64 *309:76 *333:109 0
65 *311:64 *333:76 0.000112228
66 *319:97 *333:76 4.77425e-05
67 *319:112 *333:76 0.000209499
68 *322:25 *333:25 0.000696073
69 *326:42 *333:25 0
70 *326:73 *333:38 0.00144065
71 *326:73 *333:55 0.00350188
72 *326:73 *333:59 0.00014514
73 *326:90 *333:59 0
74 *329:55 *333:31 0
75 *329:63 *333:25 0.000144998
76 *329:63 *333:38 0.00466955
77 *331:39 *2603:A 4.77699e-05
78 *331:99 *333:76 0.000112648
79 *331:120 *333:88 0.000598615
80 *332:25 *333:25 0.00426252
81 *332:44 *333:25 0
82 *332:44 *333:38 0
83 *332:67 *333:59 0.00234867
84 *332:67 *333:76 0.000274297
85 *332:80 *333:76 0.00452932
86 *332:86 *333:82 0.000124547
87 *332:92 *333:88 0.00176554
*RES
1 *2429:Y *333:10 44.5938 
2 *333:10 *2603:A 40.3193 
3 *333:10 *333:23 21.339 
4 *333:23 *333:25 31.0339 
5 *333:25 *333:31 42.8222 
6 *333:31 *2432:B 20 
7 *333:25 *333:38 41.2 
8 *333:38 *333:44 43.3166 
9 *333:44 *2467:A 20 
10 *333:38 *333:55 44.0608 
11 *333:55 *333:59 35.6766 
12 *333:59 *333:63 20.5974 
13 *333:63 *2501:A 41.339 
14 *333:63 *333:74 20 
15 *333:74 *333:76 32.1154 
16 *333:76 *333:82 40.8446 
17 *333:82 *333:88 35.7178 
18 *333:88 *333:90 20 
19 *333:90 *2535:A 20 
20 *333:90 *333:109 45.3972 
21 *333:109 *2569:A 20 
*END

*D_NET *334 0.0623769
*CONN
*I *2466:A I *D sg13g2_nor2_1
*I *2568:A I *D sg13g2_nor2_1
*I *2534:A I *D sg13g2_nor2_1
*I *2500:A I *D sg13g2_nor2_1
*I *2431:B I *D sg13g2_nor2_1
*I *2602:A I *D sg13g2_nor2_1
*I *2430:Y O *D sg13g2_nand2b_1
*CAP
1 *2466:A 0
2 *2568:A 5.9809e-05
3 *2534:A 0
4 *2500:A 0
5 *2431:B 0.000114286
6 *2602:A 0
7 *2430:Y 0.000217719
8 *334:116 0.00128845
9 *334:105 0.000403139
10 *334:97 0.0033795
11 *334:93 0.00442902
12 *334:78 0.00411919
13 *334:66 0.0043602
14 *334:58 0.00314726
15 *334:50 0.00486811
16 *334:33 0.0074629
17 *334:29 0.00303741
18 *334:16 0.000365018
19 *334:12 0.000250779
20 *2568:A *2568:B 6.4771e-05
21 *2568:A *343:161 4.77702e-05
22 *334:16 *345:32 0
23 *334:29 *345:18 0
24 *334:29 *345:32 0
25 *334:58 *2466:B 0.000144542
26 *334:58 *2467:B 0
27 *334:66 *2467:B 0
28 *334:66 *338:23 0
29 *334:66 *338:30 0
30 *334:66 *338:37 0
31 *334:66 *338:44 0
32 *334:66 *338:51 0
33 *334:66 *338:58 0
34 *334:66 *338:65 0
35 *334:66 *338:73 4.77425e-05
36 *334:66 *338:80 0
37 *334:66 *338:87 0
38 *334:66 *339:35 0
39 *334:66 *339:42 0
40 *334:66 *339:49 0
41 *334:66 *339:57 0
42 *334:66 *339:64 0
43 *334:66 *339:71 0
44 *334:66 *339:94 0
45 *334:78 *2498:B 0.0001122
46 *334:78 *339:108 0
47 *334:78 *339:119 0.000597066
48 *334:78 *339:126 0
49 *334:78 *339:133 0
50 *334:78 *339:142 0.00050194
51 *334:93 *2508:B 0
52 *334:93 *340:6 0
53 *334:93 *340:19 0
54 *334:93 *340:26 0
55 *334:93 *340:33 0
56 *334:93 *340:40 0
57 *334:93 *340:69 0
58 *334:93 *341:37 0
59 *334:93 *341:44 0
60 *334:93 *341:68 0
61 *334:93 *341:83 0
62 *334:93 *341:90 0
63 *334:93 *341:98 0
64 *334:105 *342:148 4.77699e-05
65 *334:116 *343:169 0.000281461
66 output_no[102] *334:93 0.000685749
67 output_no[110] *334:105 0
68 output_no[114] *334:116 0
69 output_no[51] *334:29 0.000378975
70 output_no[78] *334:58 0.000280554
71 output_no[79] *334:66 0
72 output_no[81] *334:66 0
73 output_no[84] *334:66 0
74 output_no[95] *334:93 0
75 output_no[96] *334:93 0
76 output_no[99] *334:93 0
77 output_o[103] *334:93 0
78 output_o[111] *334:105 0
79 output_o[114] *334:116 0
80 output_o[115] *334:116 0
81 output_o[63] *2431:B 0.000112621
82 output_o[63] *334:33 0
83 output_o[79] *334:66 0
84 output_o[87] *334:66 0
85 output_o[95] *334:93 0
86 output_o[96] *334:93 0
87 output_o[99] *334:93 0
88 *2403:B *334:33 0.000143908
89 *2431:A *334:33 0.000305367
90 *2465:A *334:58 8.00506e-05
91 *2470:A *334:66 8.01995e-05
92 *2474:A *334:66 0.000404041
93 *2476:A *334:66 4.77702e-05
94 *2486:A *334:66 0.000366617
95 *2488:A *334:66 0.000177127
96 *2504:A *334:93 4.77425e-05
97 *2506:A *334:93 0.000144841
98 *2508:A *334:93 4.77702e-05
99 *2512:A *334:93 4.77702e-05
100 *2517:A *334:93 0.000176741
101 *31:8 *334:93 0
102 *39:10 *334:105 4.77425e-05
103 *40:20 *2568:A 0.000112656
104 *156:8 *334:116 0
105 *167:16 *334:97 0.000436764
106 *167:16 *334:116 0.00142614
107 *173:8 *334:12 0
108 *173:12 *334:12 5.36839e-05
109 *294:18 *334:33 0.0016661
110 *302:29 *334:33 0.000306311
111 *302:31 *334:33 0.000596979
112 *302:33 *334:33 0.000598567
113 *302:42 *334:33 0.000273537
114 *302:48 *334:33 0.00030551
115 *302:63 *334:33 0
116 *302:73 *334:33 0
117 *306:28 *334:50 0.000274527
118 *306:81 *334:66 0.00014436
119 *310:100 *334:93 0.000112791
120 *312:41 *334:66 4.77702e-05
121 *313:77 *334:66 0
122 *313:85 *334:93 0
123 *313:93 *334:93 0.00046795
124 *314:94 *334:116 0.00043828
125 *316:71 *334:66 4.79124e-05
126 *317:68 *334:66 0.000404239
127 *318:65 *334:66 8.01392e-05
128 *319:74 *334:66 4.77425e-05
129 *320:90 *334:66 0.00012559
130 *322:37 *334:33 0
131 *322:71 *334:66 5.15366e-05
132 *325:50 *2431:B 0.000208562
133 *325:50 *334:50 0.000388839
134 *325:75 *334:50 0.0011134
135 *325:91 *334:78 0.00108192
136 *329:47 *334:16 4.77702e-05
137 *329:47 *334:29 0.000193425
138 *329:98 *334:97 0.00277158
139 *331:39 *334:33 0.00182786
140 *331:43 *334:33 0.00244001
141 *331:62 *334:33 0.000385911
142 *331:62 *334:50 0.000209816
143 *331:91 *334:66 0
144 *331:99 *334:78 0.000176396
145 *331:99 *334:93 4.77425e-05
146 *332:92 *334:97 0
147 *332:92 *334:105 0
148 *333:76 *334:93 0
149 *333:88 *334:105 0.00054099
*RES
1 *2430:Y *334:12 41.7613 
2 *334:12 *334:16 20.3193 
3 *334:16 *2602:A 20 
4 *334:16 *334:29 43.2342 
5 *334:29 *334:33 32.0948 
6 *334:33 *2431:B 21.4008 
7 *334:33 *334:50 40.1906 
8 *334:50 *334:58 42.3072 
9 *334:58 *334:66 47.4958 
10 *334:66 *334:78 34.3633 
11 *334:78 *2500:A 20 
12 *334:78 *334:93 45.8736 
13 *334:93 *334:97 41.9493 
14 *334:97 *334:105 43.6359 
15 *334:105 *2534:A 20 
16 *334:97 *334:116 33.9256 
17 *334:116 *2568:A 40.7519 
18 *334:58 *2466:A 20 
*END

*D_NET *335 0.000904647
*CONN
*I *2434:B I *D sg13g2_nor2_1
*I *2435:B I *D sg13g2_or2_1
*I *2433:Y O *D sg13g2_nand2_1
*CAP
1 *2434:B 0.000201436
2 *2435:B 0
3 *2433:Y 0.000109253
4 *335:8 0.00031069
5 *2434:A *2434:B 0
6 *10:87 *2434:B 5.4934e-05
7 *10:87 *335:8 0.000228333
8 *306:28 *2434:B 0
9 *306:28 *335:8 0
*RES
1 *2433:Y *335:8 41.0918 
2 *335:8 *2435:B 40 
3 *335:8 *2434:B 41.7304 
*END

*D_NET *336 0.0121104
*CONN
*I *2441:B I *D sg13g2_nand2_1
*I *2467:B I *D sg13g2_nand2_1
*I *2465:B I *D sg13g2_nand2_1
*I *2463:B I *D sg13g2_nand2_1
*I *2461:B I *D sg13g2_nand2_1
*I *2459:B I *D sg13g2_nand2_1
*I *2457:B I *D sg13g2_nand2_1
*I *2455:B I *D sg13g2_nand2_1
*I *2453:B I *D sg13g2_nand2_1
*I *2451:B I *D sg13g2_nand2_1
*I *2449:B I *D sg13g2_nand2_1
*I *2447:B I *D sg13g2_nand2_1
*I *2445:B I *D sg13g2_nand2_1
*I *2443:B I *D sg13g2_nand2_1
*I *2439:B I *D sg13g2_nand2_1
*I *2437:B I *D sg13g2_nand2_1
*I *2434:Y O *D sg13g2_nor2_1
*CAP
1 *2441:B 0
2 *2467:B 0.000185984
3 *2465:B 0
4 *2463:B 0
5 *2461:B 0
6 *2459:B 0
7 *2457:B 0
8 *2455:B 0
9 *2453:B 0
10 *2451:B 0
11 *2449:B 0
12 *2447:B 0
13 *2445:B 0
14 *2443:B 0
15 *2439:B 0
16 *2437:B 0.000298176
17 *2434:Y 0
18 *336:111 0.000343461
19 *336:104 0.000344393
20 *336:97 0.000342052
21 *336:90 0.000152297
22 *336:84 0.000722375
23 *336:77 0.00065703
24 *336:70 0.000645059
25 *336:63 0.000595166
26 *336:56 0.000414756
27 *336:49 0.000599613
28 *336:42 0.000539563
29 *336:35 0.000371806
30 *336:28 0.000485562
31 *336:20 0.000474416
32 *336:13 0.000336424
33 *336:4 0.000436451
34 *2437:B *2436:B 0
35 *2437:B *337:20 0
36 *336:13 *337:37 0
37 *336:13 *337:60 1.54008e-05
38 *336:20 *337:60 0.000306196
39 *336:42 *337:74 0
40 *336:49 *337:82 0
41 *336:63 *337:96 0
42 *336:70 *337:104 0
43 *336:77 *337:104 0
44 *336:77 *337:111 0
45 *336:84 *337:118 0
46 *336:84 *337:134 0
47 *336:97 *337:134 0
48 *336:104 *337:134 0
49 *336:104 *337:141 0
50 *336:111 *337:148 0
51 output_no[65] *2437:B 1.54282e-05
52 output_no[65] *336:13 0.000176626
53 output_no[66] *336:20 8.00444e-05
54 output_no[69] *336:49 7.93965e-05
55 output_no[71] *336:63 4.79124e-05
56 output_no[72] *336:63 4.77702e-05
57 output_no[72] *336:70 0.000177528
58 output_no[77] *336:111 4.78853e-05
59 output_no[78] *2467:B 0.000112641
60 *2442:A *336:28 0
61 *2443:A *336:28 0
62 *2443:A *336:35 8.01915e-05
63 *2449:A *336:49 0
64 *2449:A *336:56 0
65 *2458:A *336:84 0
66 *2465:A *2467:B 0
67 *2465:A *336:111 0
68 *10:60 *336:20 0
69 *10:60 *336:28 0.000242098
70 *10:60 *336:35 0.000323897
71 *10:60 *336:42 0.000258896
72 *10:60 *336:49 0.000582723
73 *10:60 *336:56 0.00032381
74 *313:77 *2467:B 0.00032427
75 *313:77 *336:63 0
76 *313:77 *336:70 0
77 *313:77 *336:77 0
78 *313:77 *336:84 8.03692e-05
79 *313:77 *336:97 0.000259356
80 *313:77 *336:104 0.000324127
81 *313:77 *336:111 0.000259269
82 *317:45 *336:56 0
83 *317:45 *336:63 0
84 *323:50 *336:77 0
85 *323:50 *336:84 0
86 *325:50 *2437:B 0
87 *325:50 *336:20 0
88 *329:71 *336:111 0
89 *334:58 *2467:B 0
90 *334:66 *2467:B 0
*RES
1 *2434:Y *336:4 20 
2 *336:4 *2437:B 22.6986 
3 *336:4 *336:13 1.4008 
4 *336:13 *2439:B 20 
5 *336:13 *336:20 2.266 
6 *336:20 *336:28 3.1312 
7 *336:28 *2443:B 20 
8 *336:28 *336:35 2.266 
9 *336:35 *2445:B 20 
10 *336:35 *336:42 1.8334 
11 *336:42 *2447:B 20 
12 *336:42 *336:49 3.9964 
13 *336:49 *2449:B 20 
14 *336:49 *336:56 2.266 
15 *336:56 *2451:B 20 
16 *336:56 *336:63 1.8334 
17 *336:63 *2453:B 20 
18 *336:63 *336:70 3.9964 
19 *336:70 *2455:B 20 
20 *336:70 *336:77 2.266 
21 *336:77 *2457:B 20 
22 *336:77 *336:84 3.9964 
23 *336:84 *336:90 41.0918 
24 *336:90 *2459:B 20 
25 *336:84 *336:97 1.8334 
26 *336:97 *2461:B 20 
27 *336:97 *336:104 2.266 
28 *336:104 *2463:B 20 
29 *336:104 *336:111 1.8334 
30 *336:111 *2465:B 20 
31 *336:111 *2467:B 22.266 
32 *336:20 *2441:B 20 
*END

*D_NET *337 0.0131389
*CONN
*I *2446:B I *D sg13g2_nor2_1
*I *2452:B I *D sg13g2_nor2_1
*I *2458:B I *D sg13g2_nor2_1
*I *2464:B I *D sg13g2_nor2_1
*I *2466:B I *D sg13g2_nor2_1
*I *2462:B I *D sg13g2_nor2_1
*I *2460:B I *D sg13g2_nor2_1
*I *2456:B I *D sg13g2_nor2_1
*I *2454:B I *D sg13g2_nor2_1
*I *2450:B I *D sg13g2_nor2_1
*I *2448:B I *D sg13g2_nor2_1
*I *2444:B I *D sg13g2_nor2_1
*I *2442:B I *D sg13g2_nor2_1
*I *2440:B I *D sg13g2_nor2_1
*I *2438:B I *D sg13g2_nor2_1
*I *2436:B I *D sg13g2_nor2_1
*I *2435:X O *D sg13g2_or2_1
*CAP
1 *2446:B 0
2 *2452:B 0
3 *2458:B 0
4 *2464:B 0
5 *2466:B 0.00029294
6 *2462:B 0
7 *2460:B 0
8 *2456:B 0
9 *2454:B 0
10 *2450:B 0
11 *2448:B 0
12 *2444:B 0
13 *2442:B 0
14 *2440:B 0
15 *2438:B 0
16 *2436:B 0.000182262
17 *2435:X 0.000219031
18 *337:148 0.000493761
19 *337:141 0.000442525
20 *337:134 0.000835618
21 *337:118 0.000738489
22 *337:111 0.000343279
23 *337:104 0.000620916
24 *337:96 0.00058192
25 *337:89 0.000378029
26 *337:82 0.00066086
27 *337:74 0.000605192
28 *337:67 0.000358073
29 *337:60 0.000706262
30 *337:37 0.000654966
31 *337:28 0.000297011
32 *337:20 0.000477904
33 output_no[65] *337:28 0
34 output_no[66] *337:60 0
35 output_no[69] *337:82 0
36 output_no[71] *337:96 0
37 output_no[72] *337:104 0
38 output_no[75] *337:134 0
39 output_o[65] *337:28 1.54282e-05
40 output_o[66] *337:60 4.75425e-05
41 output_o[69] *337:82 4.77346e-05
42 output_o[72] *337:104 4.77346e-05
43 output_o[75] *337:134 0
44 output_o[78] *2466:B 8.01913e-05
45 *2434:A *337:28 0
46 *2436:A *2436:B 0.000241955
47 *2436:A *337:20 1.54008e-05
48 *2437:B *2436:B 0
49 *2437:B *337:20 0
50 *2439:A *337:28 0
51 *2442:A *337:60 4.77347e-05
52 *2443:A *337:67 0
53 *2449:A *337:82 0
54 *2452:A *337:104 1.54008e-05
55 *2458:A *337:134 1.54008e-05
56 *2459:A *337:134 0
57 *2465:A *2466:B 0
58 *10:60 *337:60 0
59 *307:39 *337:60 0.0001262
60 *308:32 *337:37 0.000144217
61 *312:26 *337:67 0
62 *318:48 *337:89 0
63 *324:42 *337:111 0
64 *325:50 *337:28 0.000112226
65 *325:50 *337:60 0.000177097
66 *325:50 *337:67 0.000339556
67 *325:50 *337:74 0.000274412
68 *325:50 *337:82 0.00040409
69 *325:50 *337:89 0.000339441
70 *325:50 *337:96 0.000274182
71 *325:50 *337:104 0.00040409
72 *325:50 *337:111 0.000339096
73 *325:50 *337:118 0.000274555
74 *325:50 *337:134 0
75 *325:75 *2466:B 0
76 *325:75 *337:134 0
77 *325:75 *337:141 0
78 *325:75 *337:148 0
79 *334:58 *2466:B 0.000144542
80 *336:13 *337:37 0
81 *336:13 *337:60 1.54008e-05
82 *336:20 *337:60 0.000306196
83 *336:42 *337:74 0
84 *336:49 *337:82 0
85 *336:63 *337:96 0
86 *336:70 *337:104 0
87 *336:77 *337:104 0
88 *336:77 *337:111 0
89 *336:84 *337:118 0
90 *336:84 *337:134 0
91 *336:97 *337:134 0
92 *336:104 *337:134 0
93 *336:104 *337:141 0
94 *336:111 *337:148 0
*RES
1 *2435:X *2436:B 41.9673 
2 *2435:X *337:20 20.3193 
3 *337:20 *337:28 42.3381 
4 *337:28 *2438:B 20 
5 *337:20 *337:37 1.5347 
6 *337:37 *2440:B 20 
7 *337:37 *337:60 45.6032 
8 *337:60 *2442:B 20 
9 *337:60 *337:67 2.266 
10 *337:67 *2444:B 20 
11 *337:67 *337:74 1.8334 
12 *337:74 *337:82 4.7998 
13 *337:82 *2448:B 20 
14 *337:82 *337:89 2.266 
15 *337:89 *2450:B 20 
16 *337:89 *337:96 1.8334 
17 *337:96 *337:104 4.7998 
18 *337:104 *2454:B 20 
19 *337:104 *337:111 2.266 
20 *337:111 *2456:B 20 
21 *337:111 *337:118 1.8334 
22 *337:118 *337:134 6.2006 
23 *337:134 *2460:B 20 
24 *337:134 *337:141 2.266 
25 *337:141 *2462:B 20 
26 *337:141 *337:148 1.8334 
27 *337:148 *2466:B 22.9664 
28 *337:148 *2464:B 20 
29 *337:118 *2458:B 20 
30 *337:96 *2452:B 20 
31 *337:74 *2446:B 20 
*END

*D_NET *338 0.0139345
*CONN
*I *2501:B I *D sg13g2_nand2_1
*I *2499:B I *D sg13g2_nand2_1
*I *2497:B I *D sg13g2_nand2_1
*I *2495:B I *D sg13g2_nand2_1
*I *2493:B I *D sg13g2_nand2_1
*I *2491:B I *D sg13g2_nand2_1
*I *2489:B I *D sg13g2_nand2_1
*I *2487:B I *D sg13g2_nand2_1
*I *2485:B I *D sg13g2_nand2_1
*I *2483:B I *D sg13g2_nand2_1
*I *2481:B I *D sg13g2_nand2_1
*I *2479:B I *D sg13g2_nand2_1
*I *2477:B I *D sg13g2_nand2_1
*I *2475:B I *D sg13g2_nand2_1
*I *2473:B I *D sg13g2_nand2_1
*I *2471:B I *D sg13g2_nand2_1
*I *2468:Y O *D sg13g2_nor2_1
*CAP
1 *2501:B 9.86712e-05
2 *2499:B 0.000155775
3 *2497:B 0
4 *2495:B 0
5 *2493:B 0
6 *2491:B 0
7 *2489:B 0
8 *2487:B 0
9 *2485:B 0
10 *2483:B 0
11 *2481:B 0
12 *2479:B 0
13 *2477:B 0
14 *2475:B 0
15 *2473:B 0
16 *2471:B 0
17 *2468:Y 0
18 *338:122 0.00044134
19 *338:115 0.000348796
20 *338:108 0.000365241
21 *338:101 0.000538717
22 *338:94 0.000496839
23 *338:87 0.000359757
24 *338:80 0.000353908
25 *338:73 0.000156029
26 *338:65 0.000805978
27 *338:58 0.000742083
28 *338:51 0.000600085
29 *338:44 0.000515201
30 *338:37 0.000366116
31 *338:30 0.000558982
32 *338:23 0.000690911
33 *338:12 0.000280968
34 *338:4 0.000616152
35 *2499:B *339:142 0
36 *338:87 *339:101 0
37 *338:101 *339:119 0
38 *338:108 *339:126 0
39 *338:115 *339:133 0
40 *338:122 *339:142 0
41 output_no[81] *338:30 8.00426e-05
42 output_no[83] *338:44 4.78853e-05
43 output_no[84] *338:51 4.78769e-05
44 output_no[86] *338:65 4.78853e-05
45 output_no[89] *338:94 4.79124e-05
46 output_no[90] *338:101 8.01846e-05
47 output_no[92] *338:115 4.79124e-05
48 output_no[93] *338:122 0.000112614
49 output_no[95] *2499:B 0
50 *2488:A *338:87 0
51 *2491:A *338:94 0
52 *2491:A *338:101 0
53 *2493:A *338:101 0
54 *2493:A *338:108 0
55 *2499:A *2499:B 0
56 *272:51 *338:12 0.00043481
57 *313:77 *338:23 0
58 *313:77 *338:30 0.000598009
59 *313:77 *338:37 0.000323925
60 *313:77 *338:44 0.000259011
61 *313:77 *338:51 0.000583397
62 *313:85 *2499:B 0.000259356
63 *313:85 *338:58 0
64 *313:85 *338:65 0
65 *313:85 *338:80 0.000145099
66 *313:85 *338:87 0.00032427
67 *313:85 *338:94 0.000259127
68 *313:85 *338:101 0.000583626
69 *313:85 *338:108 0.00032427
70 *313:85 *338:115 0.000259329
71 *313:85 *338:122 0.000324067
72 *317:68 *338:65 0
73 *317:74 *338:73 0.000124547
74 *319:74 *338:80 0
75 *319:74 *338:87 0
76 *321:67 *338:87 0
77 *321:67 *338:94 0
78 *321:67 *338:101 0
79 *327:73 *338:108 0
80 *327:73 *338:115 0
81 *331:91 *338:12 8.00842e-05
82 *334:66 *338:23 0
83 *334:66 *338:30 0
84 *334:66 *338:37 0
85 *334:66 *338:44 0
86 *334:66 *338:51 0
87 *334:66 *338:58 0
88 *334:66 *338:65 0
89 *334:66 *338:73 4.77425e-05
90 *334:66 *338:80 0
91 *334:66 *338:87 0
*RES
1 *2468:Y *338:4 20 
2 *338:4 *338:12 42.6162 
3 *338:12 *2471:B 20 
4 *338:4 *338:23 2.9664 
5 *338:23 *2473:B 20 
6 *338:23 *338:30 3.9964 
7 *338:30 *2475:B 20 
8 *338:30 *338:37 2.266 
9 *338:37 *2477:B 20 
10 *338:37 *338:44 1.8334 
11 *338:44 *2479:B 20 
12 *338:44 *338:51 3.9964 
13 *338:51 *2481:B 20 
14 *338:51 *338:58 2.266 
15 *338:58 *2483:B 20 
16 *338:58 *338:65 4.2127 
17 *338:65 *338:73 41.4111 
18 *338:73 *2485:B 20 
19 *338:65 *338:80 1.6171 
20 *338:80 *2487:B 20 
21 *338:80 *338:87 2.266 
22 *338:87 *2489:B 20 
23 *338:87 *338:94 1.8334 
24 *338:94 *2491:B 20 
25 *338:94 *338:101 3.9964 
26 *338:101 *2493:B 20 
27 *338:101 *338:108 2.266 
28 *338:108 *2495:B 20 
29 *338:108 *338:115 1.8334 
30 *338:115 *2497:B 20 
31 *338:115 *338:122 2.266 
32 *338:122 *2499:B 21.8334 
33 *338:122 *2501:B 21.0918 
*END

*D_NET *339 0.0319404
*CONN
*I *2472:B I *D sg13g2_nor2_1
*I *2478:B I *D sg13g2_nor2_1
*I *2498:B I *D sg13g2_nor2_1
*I *2500:B I *D sg13g2_nor2_1
*I *2496:B I *D sg13g2_nor2_1
*I *2494:B I *D sg13g2_nor2_1
*I *2492:B I *D sg13g2_nor2_1
*I *2490:B I *D sg13g2_nor2_1
*I *2488:B I *D sg13g2_nor2_1
*I *2486:B I *D sg13g2_nor2_1
*I *2484:B I *D sg13g2_nor2_1
*I *2482:B I *D sg13g2_nor2_1
*I *2480:B I *D sg13g2_nor2_1
*I *2476:B I *D sg13g2_nor2_1
*I *2474:B I *D sg13g2_nor2_1
*I *2470:B I *D sg13g2_nor2_1
*I *2469:Y O *D sg13g2_nand2b_1
*CAP
1 *2472:B 0
2 *2478:B 0
3 *2498:B 9.39349e-05
4 *2500:B 0
5 *2496:B 0
6 *2494:B 0
7 *2492:B 0
8 *2490:B 0
9 *2488:B 0
10 *2486:B 0
11 *2484:B 0
12 *2482:B 0
13 *2480:B 0
14 *2476:B 0
15 *2474:B 0
16 *2470:B 0
17 *2469:Y 0.000300932
18 *339:150 0.000147526
19 *339:142 0.000575889
20 *339:133 0.000549455
21 *339:126 0.000462515
22 *339:119 0.000654754
23 *339:108 0.000615807
24 *339:101 0.000448559
25 *339:94 0.000704276
26 *339:71 0.000659017
27 *339:64 0.000421898
28 *339:57 0.000717721
29 *339:49 0.000653352
30 *339:42 0.000365226
31 *339:35 0.000679391
32 *339:27 0.000653269
33 *339:20 0.000737605
34 *339:12 0.00539497
35 *339:10 0.0048337
36 *339:8 0.000300932
37 *339:12 *341:14 0
38 output_no[95] *2498:B 0
39 output_no[95] *339:142 0
40 output_o[81] *339:35 4.77346e-05
41 output_o[84] *339:57 4.75425e-05
42 output_o[87] *339:94 0
43 output_o[90] *339:119 4.75425e-05
44 output_o[93] *339:142 7.99721e-05
45 output_o[94] *339:150 0.000176083
46 *2470:A *339:20 0
47 *2470:A *339:27 0
48 *2474:A *339:35 4.75442e-05
49 *2476:A *339:42 0
50 *2486:A *339:101 0
51 *2488:A *339:101 0
52 *2493:A *339:126 0
53 *2499:B *339:142 0
54 *9:20 *339:12 0
55 *271:37 *339:8 0
56 *292:10 *339:8 0
57 *300:14 *339:12 0.00633287
58 *303:52 *339:20 0.00054125
59 *306:81 *339:27 0
60 *306:81 *339:35 1.54556e-05
61 *312:41 *339:57 1.54285e-05
62 *313:50 *339:8 0
63 *316:71 *339:64 0
64 *318:65 *339:71 0
65 *321:67 *339:108 0
66 *321:67 *339:119 0
67 *325:87 *339:94 0.000144726
68 *325:87 *339:101 0.000209614
69 *328:92 *339:126 0
70 *328:92 *339:133 0
71 *330:24 *339:8 0
72 *330:37 *339:12 0.0010204
73 *331:91 *339:20 0.000176252
74 *331:91 *339:27 0.00027467
75 *331:91 *339:35 0.000371837
76 *331:91 *339:42 0.000339556
77 *331:91 *339:49 0.00027444
78 *331:91 *339:57 0
79 *331:91 *339:64 0
80 *331:91 *339:71 0
81 *331:91 *339:94 0.000371137
82 *331:99 *339:150 0.0001122
83 *333:76 *339:150 0.0001122
84 *334:66 *339:35 0
85 *334:66 *339:42 0
86 *334:66 *339:49 0
87 *334:66 *339:57 0
88 *334:66 *339:64 0
89 *334:66 *339:71 0
90 *334:66 *339:94 0
91 *334:78 *2498:B 0.0001122
92 *334:78 *339:108 0
93 *334:78 *339:119 0.000597066
94 *334:78 *339:126 0
95 *334:78 *339:133 0
96 *334:78 *339:142 0.00050194
97 *338:87 *339:101 0
98 *338:101 *339:119 0
99 *338:108 *339:126 0
100 *338:115 *339:133 0
101 *338:122 *339:142 0
*RES
1 *2469:Y *339:8 42.0806 
2 *339:8 *339:10 20 
3 *339:10 *339:12 48.3379 
4 *339:12 *339:20 44.9955 
5 *339:20 *2470:B 20 
6 *339:20 *339:27 1.8334 
7 *339:27 *339:35 4.7998 
8 *339:35 *2474:B 20 
9 *339:35 *339:42 2.266 
10 *339:42 *2476:B 20 
11 *339:42 *339:49 1.8334 
12 *339:49 *339:57 4.7998 
13 *339:57 *2480:B 20 
14 *339:57 *339:64 2.266 
15 *339:64 *2482:B 20 
16 *339:64 *339:71 1.8334 
17 *339:71 *2484:B 20 
18 *339:71 *339:94 5.81435 
19 *339:94 *2486:B 20 
20 *339:94 *339:101 2.266 
21 *339:101 *2488:B 20 
22 *339:101 *339:108 1.8334 
23 *339:108 *2490:B 20 
24 *339:108 *339:119 4.6968 
25 *339:119 *2492:B 20 
26 *339:119 *339:126 2.266 
27 *339:126 *2494:B 20 
28 *339:126 *339:133 1.8334 
29 *339:133 *2496:B 20 
30 *339:133 *339:142 3.6977 
31 *339:142 *339:150 41.5965 
32 *339:150 *2500:B 20 
33 *339:142 *2498:B 21.1021 
34 *339:49 *2478:B 20 
35 *339:27 *2472:B 20 
*END

*D_NET *340 0.0184281
*CONN
*I *2527:B I *D sg13g2_nand2_1
*I *2533:B I *D sg13g2_nand2_1
*I *2535:B I *D sg13g2_nand2_1
*I *2531:B I *D sg13g2_nand2_1
*I *2529:B I *D sg13g2_nand2_1
*I *2525:B I *D sg13g2_nand2_1
*I *2523:B I *D sg13g2_nand2_1
*I *2521:B I *D sg13g2_nand2_1
*I *2519:B I *D sg13g2_nand2_1
*I *2517:B I *D sg13g2_nand2_1
*I *2515:B I *D sg13g2_nand2_1
*I *2513:B I *D sg13g2_nand2_1
*I *2511:B I *D sg13g2_nand2_1
*I *2509:B I *D sg13g2_nand2_1
*I *2507:B I *D sg13g2_nand2_1
*I *2505:B I *D sg13g2_nand2_1
*I *2502:Y O *D sg13g2_nor2_1
*CAP
1 *2527:B 0
2 *2533:B 0
3 *2535:B 0.000284506
4 *2531:B 0
5 *2529:B 0
6 *2525:B 0
7 *2523:B 0
8 *2521:B 0
9 *2519:B 0
10 *2517:B 0
11 *2515:B 0
12 *2513:B 0
13 *2511:B 0
14 *2509:B 0
15 *2507:B 0
16 *2505:B 0
17 *2502:Y 0.000149156
18 *340:190 0.000305925
19 *340:171 0.000767664
20 *340:164 0.000501156
21 *340:149 0.000895521
22 *340:133 0.00110908
23 *340:118 0.000864712
24 *340:103 0.000900134
25 *340:84 0.00104354
26 *340:69 0.00082454
27 *340:62 0.000525522
28 *340:55 0.000488459
29 *340:48 0.000395885
30 *340:40 0.000963529
31 *340:33 0.000412393
32 *340:26 0.00036684
33 *340:19 0.000371279
34 *340:12 5.97083e-05
35 *340:6 0.000374894
36 *2535:B *342:148 0
37 *340:48 *341:68 0.000175836
38 *340:55 *343:10 0.000371898
39 *340:69 *341:98 0
40 *340:69 *341:104 0
41 *340:84 *341:104 0
42 *340:84 *342:29 0
43 *340:84 *343:29 0.000112426
44 *340:103 *341:119 0.000227748
45 *340:103 *341:129 0
46 *340:103 *342:42 4.68848e-05
47 *340:103 *342:59 2.19524e-05
48 *340:103 *343:29 0.000128623
49 *340:103 *343:46 0
50 *340:118 *341:129 0
51 *340:118 *343:57 0.000124547
52 *340:133 *341:144 1.51749e-05
53 *340:133 *342:82 0
54 *340:149 *341:158 0
55 *340:149 *342:91 0
56 *340:149 *343:69 0.000144025
57 *340:149 *343:76 0.000127854
58 *340:149 *343:84 0
59 *340:149 *343:101 0
60 *340:164 *341:178 0
61 *340:164 *343:101 0
62 *340:190 *341:188 0.000176236
63 output_no[101] *340:62 4.77425e-05
64 output_no[102] *340:62 4.79124e-05
65 output_no[102] *340:69 0.000177555
66 output_no[105] *340:103 8.00444e-05
67 output_no[108] *340:149 8.00425e-05
68 output_no[98] *340:33 4.78853e-05
69 output_no[99] *340:40 8.01846e-05
70 output_no[99] *340:48 0
71 output_o[110] *2535:B 0
72 *2505:A *340:12 0.000228819
73 *2506:A *340:12 0.000228819
74 *2517:A *340:62 0
75 *2520:A *340:84 0
76 *2532:A *2535:B 0
77 *2553:A *340:84 0
78 *2554:A *340:103 0
79 *2559:A *340:133 0
80 *2559:A *340:149 1.54008e-05
81 *2562:A *340:149 7.30101e-05
82 *2565:A *340:171 0
83 *163:8 *340:118 7.31628e-05
84 *166:10 *340:164 0.000177481
85 *303:73 *340:190 0
86 *309:76 *2535:B 0
87 *309:76 *340:171 0
88 *311:64 *340:48 0
89 *313:85 *340:6 0.000242098
90 *313:85 *340:19 0.000259011
91 *313:85 *340:26 0.00032381
92 *313:85 *340:33 0.000258114
93 *313:85 *340:40 0.000421375
94 *313:85 *340:55 3.17099e-05
95 *313:93 *340:48 0.000126325
96 *317:85 *340:84 0
97 *319:112 *340:103 0
98 *324:67 *340:118 0
99 *324:67 *340:133 0
100 *324:82 *340:133 0
101 *325:116 *340:133 0
102 *325:131 *340:149 0
103 *326:100 *340:84 0.000230373
104 *330:57 *340:55 0.000274527
105 *330:57 *340:62 0.000258366
106 *330:57 *340:69 0.000581868
107 *330:57 *340:84 0.000226812
108 *330:57 *340:103 0
109 *330:57 *340:118 0.000176654
110 *330:57 *340:133 0.000194213
111 *330:57 *340:149 0
112 *330:57 *340:164 0.000112648
113 *331:134 *340:190 7.45103e-05
114 *333:109 *2535:B 0
115 *334:93 *340:6 0
116 *334:93 *340:19 0
117 *334:93 *340:26 0
118 *334:93 *340:33 0
119 *334:93 *340:40 0
120 *334:93 *340:69 0
*RES
1 *2502:Y *340:6 21.6171 
2 *340:6 *340:12 41.0918 
3 *340:12 *2505:B 20 
4 *340:6 *340:19 1.8334 
5 *340:19 *2507:B 20 
6 *340:19 *340:26 2.266 
7 *340:26 *2509:B 20 
8 *340:26 *340:33 1.8334 
9 *340:33 *2511:B 20 
10 *340:33 *340:40 2.9149 
11 *340:40 *340:48 43.2651 
12 *340:48 *2513:B 20 
13 *340:40 *340:55 3.3475 
14 *340:55 *2515:B 20 
15 *340:55 *340:62 1.8334 
16 *340:62 *2517:B 20 
17 *340:62 *340:69 3.9964 
18 *340:69 *2519:B 20 
19 *340:69 *340:84 44.4496 
20 *340:84 *2521:B 20 
21 *340:84 *340:103 45.3972 
22 *340:103 *2523:B 20 
23 *340:103 *340:118 43.0282 
24 *340:118 *2525:B 20 
25 *340:118 *340:133 44.4496 
26 *340:133 *340:149 45.5002 
27 *340:149 *2529:B 20 
28 *340:149 *340:164 43.0282 
29 *340:164 *2531:B 20 
30 *340:164 *340:171 1.8334 
31 *340:171 *2535:B 22.9664 
32 *340:171 *340:190 42.6162 
33 *340:190 *2533:B 20 
34 *340:133 *2527:B 20 
*END

*D_NET *341 0.0471633
*CONN
*I *2516:B I *D sg13g2_nor2_1
*I *2518:B I *D sg13g2_nor2_1
*I *2522:B I *D sg13g2_nor2_1
*I *2530:B I *D sg13g2_nor2_1
*I *2534:B I *D sg13g2_nor2_1
*I *2532:B I *D sg13g2_nor2_1
*I *2528:B I *D sg13g2_nor2_1
*I *2526:B I *D sg13g2_nor2_1
*I *2524:B I *D sg13g2_nor2_1
*I *2520:B I *D sg13g2_nor2_1
*I *2514:B I *D sg13g2_nor2_1
*I *2512:B I *D sg13g2_nor2_1
*I *2510:B I *D sg13g2_nor2_1
*I *2508:B I *D sg13g2_nor2_1
*I *2506:B I *D sg13g2_nor2_1
*I *2504:B I *D sg13g2_nor2_1
*I *2503:Y O *D sg13g2_nand2b_1
*CAP
1 *2516:B 0
2 *2518:B 0.000164236
3 *2522:B 2.83881e-05
4 *2530:B 0
5 *2534:B 0.000348142
6 *2532:B 4.65818e-05
7 *2528:B 0
8 *2526:B 0
9 *2524:B 4.36446e-05
10 *2520:B 0
11 *2514:B 0
12 *2512:B 0
13 *2510:B 3.76985e-05
14 *2508:B 9.03316e-05
15 *2506:B 0
16 *2504:B 0
17 *2503:Y 0.000397987
18 *341:188 0.000715448
19 *341:178 0.000869777
20 *341:158 0.000486725
21 *341:146 0.000517366
22 *341:144 0.00113806
23 *341:129 0.00109183
24 *341:119 0.000947959
25 *341:104 0.000829278
26 *341:98 0.000965093
27 *341:90 0.000575436
28 *341:83 0.000402854
29 *341:68 0.00064438
30 *341:57 0.000765229
31 *341:44 0.000540625
32 *341:37 0.000769211
33 *341:20 0.00117442
34 *341:14 0.00952569
35 *341:12 0.00898209
36 *341:10 0.000397987
37 *2518:B *342:29 0.000175721
38 *2532:B *342:148 0
39 *2534:B *342:148 0.000224642
40 *2534:B *343:112 0
41 *341:98 *342:29 0
42 *341:104 *342:33 0
43 *341:119 *343:29 0
44 *341:119 *343:46 0
45 *341:129 *2554:B 0
46 *341:129 *342:67 4.77425e-05
47 *341:129 *343:46 0
48 *341:144 *2558:B 8.01118e-05
49 *341:158 *343:65 7.31628e-05
50 *341:178 *342:114 0
51 *341:178 *343:101 0.000112359
52 *341:188 *342:129 0.000209614
53 output_no[105] *341:129 0
54 output_no[96] *341:37 0
55 output_o[102] *341:98 4.77346e-05
56 output_o[104] *341:119 0
57 output_o[105] *341:129 4.77346e-05
58 output_o[107] *341:158 0
59 output_o[108] *341:178 7.99992e-05
60 output_o[109] *341:178 0
61 output_o[110] *2532:B 1.54285e-05
62 output_o[110] *341:188 0.000124547
63 output_o[96] *341:37 0
64 output_o[99] *341:68 4.75425e-05
65 *2505:A *341:37 0
66 *2506:A *341:37 0
67 *2508:A *2508:B 0
68 *2512:A *341:83 0
69 *2518:A *341:104 0.0001122
70 *2520:A *341:104 0
71 *2526:A *341:158 0
72 *2529:A *341:178 0
73 *2532:A *2532:B 8.03692e-05
74 *2551:A *341:90 0.000176599
75 *2551:A *341:98 0
76 *2553:A *2518:B 1.54008e-05
77 *2553:A *341:104 0
78 *2554:A *341:104 4.77425e-05
79 *2554:A *341:119 0.000112314
80 *2559:A *2524:B 1.54008e-05
81 *2559:A *341:144 0
82 *2560:A *341:158 0.000112314
83 *2565:A *341:188 0.000241955
84 *2566:A *2534:B 0.0001122
85 *9:20 *341:14 0
86 *10:116 *341:10 0
87 *32:8 *341:119 0
88 *35:10 *341:129 0
89 *38:8 *341:178 0.000177891
90 *39:10 *2532:B 0
91 *159:10 *341:98 0
92 *292:10 *341:14 0
93 *293:32 *341:20 0.000433921
94 *309:43 *341:14 0.00293102
95 *310:100 *2508:B 8.00842e-05
96 *310:100 *341:57 0.000241868
97 *310:100 *341:68 0
98 *315:44 *341:14 0
99 *317:60 *341:14 0
100 *317:81 *341:14 0
101 *319:112 *341:119 0.000111685
102 *320:67 *341:14 0
103 *324:82 *341:144 4.77425e-05
104 *325:116 *341:144 8.00842e-05
105 *325:131 *341:144 0.000209499
106 *325:131 *341:158 0.000111685
107 *327:41 *341:10 0.00064437
108 *327:79 *341:178 0
109 *328:48 *341:10 0
110 *329:47 *341:10 0
111 *330:37 *341:14 0.00614148
112 *330:57 *341:104 0
113 *330:57 *341:119 0
114 *330:57 *341:158 0
115 *331:120 *341:144 0.000144956
116 *331:120 *341:178 0.000402738
117 *333:76 *341:37 0
118 *333:76 *341:44 0
119 *333:76 *341:57 0
120 *333:76 *341:68 0
121 *333:76 *341:83 0
122 *333:76 *341:129 0
123 *334:93 *2508:B 0
124 *334:93 *341:37 0
125 *334:93 *341:44 0
126 *334:93 *341:68 0
127 *334:93 *341:83 0
128 *334:93 *341:90 0
129 *334:93 *341:98 0
130 *339:12 *341:14 0
131 *340:48 *341:68 0.000175836
132 *340:69 *341:98 0
133 *340:69 *341:104 0
134 *340:84 *341:104 0
135 *340:103 *341:119 0.000227748
136 *340:103 *341:129 0
137 *340:118 *341:129 0
138 *340:133 *341:144 1.51749e-05
139 *340:149 *341:158 0
140 *340:164 *341:178 0
141 *340:190 *341:188 0.000176236
*RES
1 *2503:Y *341:10 44.0376 
2 *341:10 *341:12 20 
3 *341:12 *341:14 91.5979 
4 *341:14 *341:20 24.6247 
5 *341:20 *2504:B 40 
6 *341:20 *341:37 25.7886 
7 *341:37 *2506:B 20 
8 *341:37 *341:44 1.4008 
9 *341:44 *2508:B 20.9682 
10 *341:44 *341:57 3.6462 
11 *341:57 *2510:B 20.3502 
12 *341:57 *341:68 2.305 
13 *341:68 *2512:B 20 
14 *341:68 *341:83 2.68315 
15 *341:83 *2514:B 20 
16 *341:83 *341:90 1.8334 
17 *341:90 *341:98 3.9655 
18 *341:98 *341:104 3.8007 
19 *341:104 *2520:B 20 
20 *341:104 *341:119 43.7698 
21 *341:119 *341:129 4.7174 
22 *341:129 *2524:B 20.5356 
23 *341:129 *341:144 5.8772 
24 *341:144 *341:146 0.3502 
25 *341:146 *341:158 44.12 
26 *341:158 *2526:B 20 
27 *341:146 *2528:B 20 
28 *341:144 *341:178 45.4384 
29 *341:178 *341:188 23.9964 
30 *341:188 *2532:B 40.5356 
31 *341:188 *2534:B 43.09 
32 *341:178 *2530:B 20 
33 *341:119 *2522:B 20.3502 
34 *341:98 *2518:B 22.0291 
35 *341:90 *2516:B 20 
*END

*D_NET *342 0.0183093
*CONN
*I *2569:B I *D sg13g2_nand2_1
*I *2567:B I *D sg13g2_nand2_1
*I *2549:B I *D sg13g2_nand2_1
*I *2547:B I *D sg13g2_nand2_1
*I *2541:B I *D sg13g2_nand2_1
*I *2545:B I *D sg13g2_nand2_1
*I *2543:B I *D sg13g2_nand2_1
*I *2539:B I *D sg13g2_nand2_1
*I *2565:B I *D sg13g2_nand2_1
*I *2563:B I *D sg13g2_nand2_1
*I *2561:B I *D sg13g2_nand2_1
*I *2559:B I *D sg13g2_nand2_1
*I *2557:B I *D sg13g2_nand2_1
*I *2555:B I *D sg13g2_nand2_1
*I *2553:B I *D sg13g2_nand2_1
*I *2551:B I *D sg13g2_nand2_1
*I *2536:Y O *D sg13g2_nor3_1
*CAP
1 *2569:B 0.000190792
2 *2567:B 0
3 *2549:B 2.92417e-05
4 *2547:B 0.000265214
5 *2541:B 3.0338e-05
6 *2545:B 0
7 *2543:B 0
8 *2539:B 0
9 *2565:B 0
10 *2563:B 0
11 *2561:B 0.000219102
12 *2559:B 0
13 *2557:B 0
14 *2555:B 0.00020642
15 *2553:B 0
16 *2551:B 0
17 *2536:Y 0.000440656
18 *342:187 0.000382
19 *342:176 0.000322797
20 *342:168 0.000461491
21 *342:161 0.000363505
22 *342:154 0.000240927
23 *342:148 0.000799555
24 *342:129 0.00103992
25 *342:114 0.000689371
26 *342:110 0.000421618
27 *342:91 0.000576661
28 *342:82 0.000548096
29 *342:67 0.00010657
30 *342:59 0.000783927
31 *342:42 0.000568941
32 *342:33 0.000284394
33 *342:29 0.000626616
34 *342:10 0.000895302
35 *2547:B *343:157 0.000124547
36 *2569:B *343:142 0
37 *342:29 *343:29 0
38 *342:110 *343:65 7.30101e-05
39 *342:114 *343:101 0.000112683
40 *342:129 *343:101 0.000273168
41 *342:129 *343:112 0
42 output_no[102] *342:10 0
43 output_no[112] *342:161 0.000143649
44 output_no[113] *2541:B 1.54008e-05
45 output_no[114] *342:168 0
46 output_o[108] *342:114 0
47 output_o[113] *2547:B 0
48 output_o[113] *342:176 0.000177583
49 *2518:B *342:29 0.000175721
50 *2520:A *2555:B 0
51 *2532:A *342:148 0
52 *2532:B *342:148 0
53 *2534:B *342:148 0.000224642
54 *2535:B *342:148 0
55 *2549:A *342:168 0
56 *2552:A *342:29 0.000112228
57 *2553:A *342:29 0
58 *2553:A *342:33 0.000177042
59 *2554:A *342:33 4.77425e-05
60 *2554:A *342:42 0.000160292
61 *2556:A *2555:B 0
62 *2557:A *342:67 0.000103073
63 *2560:A *342:82 8.00842e-05
64 *2560:A *342:91 0.000160408
65 *9:9 *342:10 0
66 *9:103 *342:10 0
67 *28:8 *342:187 1.54556e-05
68 *31:8 *342:29 0.000127874
69 *39:10 *342:148 0.00032076
70 *39:10 *342:154 0.000177846
71 *39:14 *342:168 0
72 *40:10 *2569:B 0.000175693
73 *40:20 *2541:B 4.77425e-05
74 *40:20 *342:176 4.77425e-05
75 *40:20 *342:187 4.77425e-05
76 *41:12 *2547:B 0.000175836
77 *159:10 *342:10 0
78 *159:10 *342:29 0
79 *160:12 *342:110 0.000211579
80 *162:10 *342:59 0.000210919
81 *162:10 *342:82 0.000439708
82 *162:10 *342:110 0
83 *164:8 *342:82 7.44237e-05
84 *167:10 *342:129 1.54285e-05
85 *168:10 *2549:B 3.23417e-05
86 *168:10 *342:161 0.000273361
87 *168:10 *342:168 0.000290477
88 *306:55 *342:176 0.000330846
89 *307:72 *342:154 0.00022912
90 *307:72 *342:161 0
91 *307:72 *342:168 0
92 *309:76 *342:176 0
93 *311:77 *342:10 0
94 *311:77 *342:187 0
95 *311:85 *2547:B 0
96 *313:117 *342:176 0
97 *319:112 *2555:B 0.000124773
98 *319:112 *342:59 7.30101e-05
99 *321:73 *342:67 7.40536e-05
100 *323:80 *342:59 0
101 *325:131 *2561:B 0.000124773
102 *325:131 *342:110 0.00022762
103 *326:106 *342:59 0.000408061
104 *326:106 *342:82 0.000424519
105 *330:57 *2555:B 0.000112791
106 *330:57 *2561:B 0.000112561
107 *330:57 *342:10 0
108 *330:57 *342:82 0
109 *331:120 *342:129 0
110 *333:109 *2569:B 9.67976e-05
111 *333:109 *342:148 0.000256786
112 *334:105 *342:148 4.77699e-05
113 *340:84 *342:29 0
114 *340:103 *342:42 4.68848e-05
115 *340:103 *342:59 2.19524e-05
116 *340:133 *342:82 0
117 *340:149 *342:91 0
118 *341:98 *342:29 0
119 *341:104 *342:33 0
120 *341:129 *342:67 4.77425e-05
121 *341:178 *342:114 0
122 *341:188 *342:129 0.000209614
*RES
1 *2536:Y *342:10 43.6668 
2 *342:10 *2551:B 40 
3 *342:10 *342:29 44.2745 
4 *342:29 *342:33 21.6171 
5 *342:33 *2553:B 20 
6 *342:33 *342:42 21.1845 
7 *342:42 *2555:B 41.8437 
8 *342:42 *342:59 23.0488 
9 *342:59 *342:67 41.1639 
10 *342:67 *2557:B 20 
11 *342:59 *342:82 44.6659 
12 *342:82 *2559:B 20 
13 *342:82 *342:91 21.1845 
14 *342:91 *2561:B 41.8437 
15 *342:91 *342:110 42.4926 
16 *342:110 *342:114 21.6171 
17 *342:114 *2563:B 20 
18 *342:114 *342:129 5.3972 
19 *342:129 *2565:B 20 
20 *342:129 *342:148 45.3004 
21 *342:148 *342:154 41.0918 
22 *342:154 *2539:B 20 
23 *342:154 *342:161 1.8334 
24 *342:161 *2543:B 20 
25 *342:161 *342:168 2.0497 
26 *342:168 *342:176 42.8943 
27 *342:176 *2545:B 20 
28 *342:176 *342:187 20.9167 
29 *342:187 *2541:B 40.3193 
30 *342:187 *2547:B 42.8119 
31 *342:168 *2549:B 20.3193 
32 *342:148 *2567:B 20 
33 *342:148 *2569:B 21.8334 
*END

*D_NET *343 0.0213179
*CONN
*I *2552:B I *D sg13g2_nor2_1
*I *2558:B I *D sg13g2_nor2_1
*I *2542:B I *D sg13g2_nor2_1
*I *2568:B I *D sg13g2_nor2_1
*I *2546:B I *D sg13g2_nor2_1
*I *2544:B I *D sg13g2_nor2_1
*I *2548:B I *D sg13g2_nor2_1
*I *2540:B I *D sg13g2_nor2_1
*I *2538:B I *D sg13g2_nor2_1
*I *2566:B I *D sg13g2_nor2_1
*I *2564:B I *D sg13g2_nor2_1
*I *2562:B I *D sg13g2_nor2_1
*I *2560:B I *D sg13g2_nor2_1
*I *2556:B I *D sg13g2_nor2_1
*I *2554:B I *D sg13g2_nor2_1
*I *2550:B I *D sg13g2_nor2_1
*I *2537:Y O *D sg13g2_nand2b_1
*CAP
1 *2552:B 0
2 *2558:B 0.000203418
3 *2542:B 0
4 *2568:B 8.24131e-05
5 *2546:B 0.000179276
6 *2544:B 0
7 *2548:B 0
8 *2540:B 0
9 *2538:B 0
10 *2566:B 0
11 *2564:B 0
12 *2562:B 0
13 *2560:B 0
14 *2556:B 0
15 *2554:B 2.86565e-05
16 *2550:B 0
17 *2537:Y 0.000441331
18 *343:175 9.62002e-05
19 *343:169 0.000449368
20 *343:161 0.000496543
21 *343:157 0.000503364
22 *343:142 0.000787068
23 *343:127 0.00100292
24 *343:112 0.000955173
25 *343:101 0.0008212
26 *343:84 0.000246214
27 *343:76 0.000756633
28 *343:69 0.000265688
29 *343:65 0.000503549
30 *343:57 0.000868048
31 *343:46 0.000722957
32 *343:29 0.00105887
33 *343:21 0.000909412
34 *343:14 0.000538995
35 *343:10 0.000639524
36 output_no[105] *343:46 0.00012559
37 output_no[108] *343:76 7.92265e-05
38 output_no[111] *343:127 0
39 output_no[113] *343:157 0.000274505
40 output_no[115] *343:175 0
41 output_o[101] *343:10 0.000281613
42 output_o[109] *343:101 0.000177899
43 output_o[112] *343:142 0.000111759
44 output_o[114] *343:161 4.78769e-05
45 *2512:A *343:10 0
46 *2533:A *343:112 4.77425e-05
47 *2534:B *343:112 0
48 *2539:A *343:112 0
49 *2539:A *343:127 0
50 *2547:B *343:157 0.000124547
51 *2551:A *343:14 0
52 *2552:A *343:29 1.54285e-05
53 *2553:A *343:29 3.98468e-05
54 *2556:A *343:46 0
55 *2560:A *343:69 0
56 *2562:A *343:84 0
57 *2568:A *2568:B 6.4771e-05
58 *2568:A *343:161 4.77702e-05
59 *2569:B *343:142 0
60 *35:10 *2558:B 7.30101e-05
61 *39:10 *343:127 0.000282123
62 *40:20 *343:142 0.000209876
63 *40:20 *343:161 0
64 *41:10 *343:142 0
65 *41:12 *2546:B 0
66 *41:12 *343:142 0
67 *41:12 *343:157 0.000144053
68 *41:12 *343:161 0
69 *156:8 *343:169 7.31628e-05
70 *156:8 *343:175 0.000230586
71 *159:10 *343:21 0.000434363
72 *160:12 *343:65 0
73 *162:10 *343:65 0.000604238
74 *167:10 *343:112 4.75151e-05
75 *168:8 *343:127 8.03146e-05
76 *168:10 *2546:B 0.00027444
77 *168:10 *343:142 0.000208342
78 *168:10 *343:157 0.000144216
79 *168:10 *343:169 8.00842e-05
80 *306:55 *343:142 0
81 *309:76 *343:127 0
82 *312:72 *2546:B 0
83 *313:93 *343:10 0.000371783
84 *313:99 *343:10 7.33256e-05
85 *313:117 *343:142 0.00022762
86 *314:84 *343:10 0
87 *323:80 *343:65 0.000146301
88 *324:67 *343:57 0.000126392
89 *330:57 *343:57 0
90 *330:57 *343:76 0
91 *331:120 *2558:B 0
92 *331:120 *343:112 0.000305966
93 *331:134 *343:127 7.30101e-05
94 *333:76 *343:14 0.000306896
95 *333:76 *343:21 0.000596929
96 *333:76 *343:29 0
97 *333:109 *343:127 8.01995e-05
98 *333:109 *343:142 0.000112418
99 *334:116 *343:169 0.000281461
100 *340:55 *343:10 0.000371898
101 *340:84 *343:29 0.000112426
102 *340:103 *343:29 0.000128623
103 *340:103 *343:46 0
104 *340:118 *343:57 0.000124547
105 *340:149 *343:69 0.000144025
106 *340:149 *343:76 0.000127854
107 *340:149 *343:84 0
108 *340:149 *343:101 0
109 *340:164 *343:101 0
110 *341:119 *343:29 0
111 *341:119 *343:46 0
112 *341:129 *2554:B 0
113 *341:129 *343:46 0
114 *341:144 *2558:B 8.01118e-05
115 *341:158 *343:65 7.31628e-05
116 *341:178 *343:101 0.000112359
117 *342:29 *343:29 0
118 *342:110 *343:65 7.30101e-05
119 *342:114 *343:101 0.000112683
120 *342:129 *343:101 0.000273168
121 *342:129 *343:112 0
*RES
1 *2537:Y *343:10 44.8101 
2 *343:10 *343:14 22.0497 
3 *343:14 *2550:B 20 
4 *343:14 *343:21 3.9964 
5 *343:21 *343:29 5.047 
6 *343:29 *2554:B 20.3502 
7 *343:29 *343:46 43.708 
8 *343:46 *2556:B 20 
9 *343:46 *343:57 22.3072 
10 *343:57 *343:65 44.3466 
11 *343:65 *343:69 20.9682 
12 *343:69 *2560:B 20 
13 *343:69 *343:76 1.6171 
14 *343:76 *343:84 41.8437 
15 *343:84 *2562:B 20 
16 *343:76 *343:101 43.7801 
17 *343:101 *2564:B 20 
18 *343:101 *343:112 4.6968 
19 *343:112 *2566:B 20 
20 *343:112 *343:127 44.4496 
21 *343:127 *2538:B 20 
22 *343:127 *343:142 45.1912 
23 *343:142 *2540:B 20 
24 *343:142 *343:157 43.0282 
25 *343:157 *343:161 2.1836 
26 *343:161 *343:169 41.8746 
27 *343:169 *343:175 41.0918 
28 *343:175 *2548:B 20 
29 *343:169 *2544:B 20 
30 *343:169 *2546:B 21.8334 
31 *343:161 *2568:B 20.8858 
32 *343:157 *2542:B 20 
33 *343:57 *2558:B 41.9158 
34 *343:21 *2552:B 20 
*END

*D_NET *344 0.0351475
*CONN
*I *2599:B I *D sg13g2_nand2_1
*I *2591:B I *D sg13g2_nand2_1
*I *2593:B I *D sg13g2_nand2_1
*I *2585:B I *D sg13g2_nand2_1
*I *2583:B I *D sg13g2_nand2_1
*I *2587:B I *D sg13g2_nand2_1
*I *2597:B I *D sg13g2_nand2_1
*I *2581:B I *D sg13g2_nand2_1
*I *2589:B I *D sg13g2_nand2_1
*I *2573:B I *D sg13g2_nand2_1
*I *2577:B I *D sg13g2_nand2_1
*I *2579:B I *D sg13g2_nand2_1
*I *2575:B I *D sg13g2_nand2_1
*I *2595:B I *D sg13g2_nand2_1
*I *2601:B I *D sg13g2_nand2_1
*I *2603:B I *D sg13g2_nand2_1
*I *2570:X O *D sg13g2_and3_1
*CAP
1 *2599:B 0
2 *2591:B 0
3 *2593:B 4.58946e-05
4 *2585:B 0
5 *2583:B 0
6 *2587:B 0
7 *2597:B 0
8 *2581:B 0
9 *2589:B 0
10 *2573:B 0
11 *2577:B 0.000121646
12 *2579:B 0
13 *2575:B 0
14 *2595:B 0.00012188
15 *2601:B 5.57484e-05
16 *2603:B 0.000122098
17 *2570:X 0.000661313
18 *344:183 0.000207887
19 *344:177 0.000360356
20 *344:173 0.000790887
21 *344:165 0.000787353
22 *344:163 0.000428286
23 *344:157 0.000973671
24 *344:147 0.00160612
25 *344:141 0.00148937
26 *344:133 0.00136096
27 *344:125 0.000951317
28 *344:117 0.00144252
29 *344:90 0.00157498
30 *344:84 0.000562351
31 *344:76 0.000908594
32 *344:70 0.000692297
33 *344:68 0.00107008
34 *344:37 0.00210515
35 *344:22 0.00129583
36 *344:16 0.00193363
37 *344:12 0.00240053
38 *2595:B *345:76 0.000142837
39 *2601:B *345:34 1.54008e-05
40 *2601:B *345:47 4.77699e-05
41 *344:37 *345:32 0
42 *344:37 *345:34 0
43 *344:68 *345:47 0.00040324
44 *344:68 *345:51 0.000411031
45 *344:68 *345:61 0
46 *344:117 *345:76 0.000660939
47 *344:147 *345:174 4.77702e-05
48 *344:173 *2588:B 0
49 output_no[26] *344:173 0
50 output_no[32] *344:141 0
51 output_no[36] *344:133 0
52 output_no[40] *344:117 0
53 output_no[44] *344:68 1.54282e-05
54 output_no[48] *344:37 0
55 output_no[50] *344:22 0
56 output_no[57] *344:12 0
57 output_o[27] *344:173 0
58 output_o[33] *344:141 8.01914e-05
59 output_o[36] *344:133 4.75425e-05
60 output_o[44] *344:68 0
61 output_o[58] *344:12 0
62 *2314:A *344:157 0
63 *2322:B *344:141 0
64 *2322:B *344:147 0
65 *2331:B *344:141 0
66 *2340:B *344:133 4.77425e-05
67 *2343:A *344:133 0
68 *2347:A *344:117 0
69 *2347:A *344:125 1.54008e-05
70 *2353:B *344:90 0.000112314
71 *2573:A *344:165 0
72 *2573:A *344:173 0
73 *2577:A *2577:B 0
74 *2577:A *344:183 0
75 *2580:A *344:147 0.00020815
76 *2581:A *344:157 0.000124547
77 *2585:A *344:117 4.77425e-05
78 *2593:A *2593:B 0
79 *2597:A *344:147 0
80 *2597:A *344:157 0
81 *2601:A *344:37 0.000135823
82 *2603:A *2603:B 0
83 *8:53 *344:12 0
84 *10:126 *344:12 4.7885e-05
85 *10:128 *344:12 0
86 *11:8 *344:173 7.59811e-05
87 *33:10 *344:90 0
88 *33:10 *344:117 7.86681e-05
89 *50:8 *344:183 0
90 *61:14 *344:177 0
91 *83:8 *344:163 0
92 *105:8 *344:125 0
93 *116:8 *344:141 0.000208825
94 *127:12 *344:173 0.000532636
95 *138:8 *344:84 4.77425e-05
96 *255:10 *344:177 0.000209384
97 *255:10 *344:183 7.5138e-05
98 *272:22 *344:12 0.000177272
99 *275:46 *344:147 0
100 *277:61 *2593:B 0
101 *277:61 *2595:B 3.72123e-05
102 *277:61 *344:90 3.23417e-05
103 *277:69 *2595:B 0.000112426
104 *277:69 *344:90 0.000187038
105 *281:33 *344:165 8.01995e-05
106 *281:84 *344:117 0
107 *281:107 *344:84 0
108 *281:124 *344:84 0
109 *283:123 *344:68 0.000435337
110 *283:161 *344:68 0.00019331
111 *286:12 *344:147 3.24568e-05
112 *286:12 *344:157 0.000499953
113 *286:18 *344:157 0
114 *286:55 *344:68 0.000178845
115 *287:29 *344:141 0
116 *293:51 *344:12 8.01846e-05
117 *294:46 *344:76 0
118 *294:48 *344:76 0
119 *294:54 *2593:B 6.47987e-05
120 *294:54 *344:76 0
121 *294:54 *344:90 4.75166e-05
122 *294:58 *344:90 0
123 *294:72 *344:117 0
124 *294:82 *344:125 6.44472e-05
125 *294:82 *344:133 0.000144772
126 *294:88 *344:133 0
127 *294:92 *344:133 0
128 *294:107 *344:133 0.000403779
129 *294:109 *344:133 1.54008e-05
130 *294:109 *344:141 0
131 *294:111 *344:141 0
132 *294:131 *344:141 0
133 *294:247 *344:68 7.30101e-05
134 *299:30 *2577:B 0
135 *299:30 *344:147 7.9225e-05
136 *299:30 *344:157 0
137 *299:30 *344:165 0
138 *299:30 *344:173 0
139 *299:56 *344:133 0.000112648
140 *299:56 *344:147 0.000646718
141 *301:44 *344:12 0.00022762
142 *301:72 *2603:B 8.03692e-05
143 *301:72 *344:37 0
144 *301:89 *344:37 8.01995e-05
145 *313:19 *344:76 0.000403018
146 *313:19 *344:84 0
147 *317:14 *344:133 0
148 *317:14 *344:141 0
149 *319:10 *344:163 0
150 *320:22 *344:157 0.000370731
151 *320:35 *344:157 7.31655e-05
152 *321:16 *344:76 6.46834e-05
153 *321:16 *344:84 1.54008e-05
154 *321:26 *344:12 0
155 *322:25 *344:16 0.000793443
156 *322:25 *344:68 0
157 *323:8 *344:84 0
158 *325:8 *344:90 0
159 *325:8 *344:117 0
160 *328:28 *344:117 0.000144284
161 *328:28 *344:125 0
162 *328:28 *344:133 0
163 *328:133 *344:157 0
164 *331:39 *2603:B 0
165 *331:39 *344:37 0.00128483
166 *333:23 *344:22 0
167 *333:25 *344:16 0
*RES
1 *2570:X *344:12 45.8092 
2 *344:12 *344:16 38.4885 
3 *344:16 *344:22 41.5862 
4 *344:22 *2603:B 21.3802 
5 *344:22 *344:37 10.1043 
6 *344:37 *2601:B 20.6695 
7 *344:37 *344:68 31.5823 
8 *344:68 *344:70 20 
9 *344:70 *344:76 6.6126 
10 *344:76 *344:84 41.6274 
11 *344:84 *344:90 22.8634 
12 *344:90 *2595:B 41.4317 
13 *344:90 *344:117 30.9386 
14 *344:117 *344:125 2.884 
15 *344:125 *344:133 6.9628 
16 *344:133 *344:141 45.768 
17 *344:141 *344:147 7.9104 
18 *344:147 *344:157 47.9104 
19 *344:157 *344:163 41.0918 
20 *344:163 *344:165 2.266 
21 *344:165 *344:173 45.5208 
22 *344:173 *344:177 1.9982 
23 *344:177 *344:183 41.5862 
24 *344:183 *2575:B 20 
25 *344:177 *2579:B 20 
26 *344:173 *2577:B 21.3673 
27 *344:165 *2573:B 20 
28 *344:163 *2589:B 20 
29 *344:157 *2581:B 20 
30 *344:147 *2597:B 20 
31 *344:133 *2587:B 20 
32 *344:125 *2583:B 20 
33 *344:117 *2585:B 20 
34 *344:84 *2593:B 20.5356 
35 *344:76 *2591:B 20 
36 *344:70 *2599:B 20 
*END

*D_NET *345 0.0434038
*CONN
*I *2602:B I *D sg13g2_nor2_1
*I *2598:B I *D sg13g2_nor2_1
*I *2592:B I *D sg13g2_nor2_1
*I *2590:B I *D sg13g2_nor2_1
*I *2582:B I *D sg13g2_nor2_1
*I *2584:B I *D sg13g2_nor2_1
*I *2586:B I *D sg13g2_nor2_1
*I *2580:B I *D sg13g2_nor2_1
*I *2574:B I *D sg13g2_nor2_1
*I *2596:B I *D sg13g2_nor2_1
*I *2578:B I *D sg13g2_nor2_1
*I *2576:B I *D sg13g2_nor2_1
*I *2572:B I *D sg13g2_nor2_1
*I *2588:B I *D sg13g2_nor2_1
*I *2594:B I *D sg13g2_nor2_1
*I *2600:B I *D sg13g2_nor2_1
*I *2571:Y O *D sg13g2_nand3_1
*CAP
1 *2602:B 0
2 *2598:B 0
3 *2592:B 0
4 *2590:B 0
5 *2582:B 0
6 *2584:B 0
7 *2586:B 3.18856e-05
8 *2580:B 0
9 *2574:B 0
10 *2596:B 0
11 *2578:B 0.000177188
12 *2576:B 0
13 *2572:B 0.000148335
14 *2588:B 6.83023e-05
15 *2594:B 0
16 *2600:B 2.79796e-05
17 *2571:Y 3.10155e-05
18 *345:174 0.000284417
19 *345:147 0.000177188
20 *345:133 0.000274655
21 *345:125 0.000203849
22 *345:123 0.000206612
23 *345:119 0.0028075
24 *345:104 0.00411329
25 *345:98 0.00344143
26 *345:88 0.00238931
27 *345:82 0.000699078
28 *345:76 0.00147609
29 *345:61 0.00183185
30 *345:51 0.000760327
31 *345:47 0.000735859
32 *345:34 0.000723107
33 *345:32 0.00121978
34 *345:18 0.00101345
35 *345:12 0.0022387
36 *345:8 0.00224432
37 output_no[16] *2572:B 1.54285e-05
38 output_no[16] *345:123 0.000259099
39 output_no[16] *345:125 0.000212302
40 output_no[16] *345:133 0.000282302
41 output_no[25] *2588:B 0.000112656
42 output_no[25] *345:104 0
43 output_no[25] *345:119 0
44 output_no[38] *345:82 0
45 output_no[40] *345:76 0
46 output_no[45] *345:51 0
47 output_no[48] *345:32 0
48 output_no[50] *345:32 0
49 output_no[58] *345:8 2.14736e-05
50 output_o[39] *345:82 0
51 output_o[44] *345:61 4.78578e-05
52 output_o[48] *345:32 0
53 *2308:C *345:104 0
54 *2308:C *345:119 0
55 *2331:A *345:98 0.000176625
56 *2331:B *345:98 0
57 *2337:B *345:98 0.000274182
58 *2358:B *345:61 3.15716e-05
59 *2369:A *345:104 0.000500118
60 *2376:A *345:32 8.00842e-05
61 *2389:C *345:88 0.000112568
62 *2572:A *2572:B 0
63 *2578:A *2572:B 0.000274439
64 *2578:A *345:133 4.77702e-05
65 *2579:A *345:104 0
66 *2582:A *345:76 0
67 *2584:A *345:88 0
68 *2586:A *345:88 0.00019233
69 *2586:A *345:98 1.54008e-05
70 *2590:A *345:51 0
71 *2590:A *345:61 0
72 *2595:B *345:76 0.000142837
73 *2598:A *345:34 0
74 *2600:A *345:32 0
75 *2601:B *345:34 1.54008e-05
76 *2601:B *345:47 4.77699e-05
77 *10:157 *345:8 0
78 *33:10 *345:76 0.000111037
79 *44:22 *345:125 0
80 *44:22 *345:133 0
81 *45:10 *345:32 0
82 *50:12 *345:119 0
83 *127:12 *2588:B 4.77699e-05
84 *127:12 *345:119 0.000334805
85 *161:8 *345:61 0.000112456
86 *170:6 *2578:B 0.000209756
87 *178:8 *2578:B 0
88 *189:8 *2572:B 0.000209756
89 *222:12 *345:82 0
90 *268:22 *345:98 0
91 *277:44 *345:76 0
92 *277:61 *345:76 0.000530651
93 *278:55 *345:98 0.000177271
94 *278:61 *345:98 0.000289659
95 *278:61 *345:104 0.000597779
96 *280:18 *345:119 0.000695347
97 *281:158 *345:47 0
98 *283:61 *345:119 0
99 *283:69 *345:119 0.000534019
100 *285:102 *345:174 0.000279156
101 *286:8 *345:174 0
102 *286:40 *345:61 0
103 *286:40 *345:76 0
104 *290:20 *345:104 0.000692813
105 *290:44 *345:98 8.00842e-05
106 *290:44 *345:104 0.000694809
107 *291:32 *345:104 0.000596052
108 *294:42 *345:61 0
109 *294:46 *345:61 0
110 *294:58 *345:76 0
111 *294:60 *345:76 0
112 *294:72 *345:76 0
113 *294:72 *345:88 0.000262785
114 *294:74 *345:88 0.000322396
115 *294:82 *345:88 0.000208134
116 *294:82 *345:98 0
117 *294:88 *345:98 0.000259329
118 *294:92 *345:98 0.000143571
119 *294:107 *345:98 0
120 *294:109 *345:98 0
121 *294:111 *345:98 0
122 *296:36 *345:119 0.00192698
123 *299:30 *345:174 1.54285e-05
124 *301:72 *345:18 4.7885e-05
125 *301:72 *345:32 0.000288461
126 *301:74 *345:32 4.77702e-05
127 *313:19 *345:88 0
128 *320:10 *345:104 0.000111037
129 *320:22 *345:104 0.000467758
130 *322:41 *345:12 0.000539193
131 *324:23 *345:12 0
132 *325:12 *345:76 4.77425e-05
133 *325:23 *345:76 9.699e-05
134 *326:21 *345:12 0
135 *326:25 *345:8 7.30101e-05
136 *327:8 *345:174 0.000641371
137 *328:28 *345:76 0
138 *328:145 *345:119 0
139 *329:47 *345:32 0
140 *334:16 *345:32 0
141 *334:29 *345:18 0
142 *334:29 *345:32 0
143 *344:37 *345:32 0
144 *344:37 *345:34 0
145 *344:68 *345:47 0.00040324
146 *344:68 *345:51 0.000411031
147 *344:68 *345:61 0
148 *344:117 *345:76 0.000660939
149 *344:147 *345:174 4.77702e-05
150 *344:173 *2588:B 0
*RES
1 *2571:Y *345:8 40.3502 
2 *345:8 *345:12 38.9211 
3 *345:12 *345:18 40.3193 
4 *345:18 *345:32 49.0434 
5 *345:32 *345:34 1.8334 
6 *345:34 *2600:B 20.3502 
7 *345:34 *345:47 4.6088 
8 *345:47 *345:51 3.1106 
9 *345:51 *345:61 4.9028 
10 *345:61 *2594:B 20 
11 *345:61 *345:76 13.184 
12 *345:76 *345:82 41.0918 
13 *345:82 *345:88 6.18 
14 *345:88 *345:98 17.0465 
15 *345:98 *345:104 35.1616 
16 *345:104 *2588:B 40.7519 
17 *345:104 *345:119 46.4401 
18 *345:119 *345:123 21.339 
19 *345:123 *345:125 1.0918 
20 *345:125 *345:133 21.7304 
21 *345:133 *2572:B 21.8334 
22 *345:133 *2576:B 20 
23 *345:125 *345:147 20 
24 *345:147 *2578:B 21.8334 
25 *345:147 *2596:B 20 
26 *345:123 *2574:B 40 
27 *345:98 *345:174 43.3887 
28 *345:174 *2580:B 20 
29 *345:88 *2586:B 20.3502 
30 *345:82 *2584:B 20 
31 *345:76 *2582:B 20 
32 *345:51 *2590:B 20 
33 *345:47 *2592:B 20 
34 *345:32 *2598:B 20 
35 *345:18 *2602:B 20 
*END
